%chk=gck.chk
%mem=28GB
%nproc=4
#wb97xd 6-311++g** td(nstates=1,root=1) charge force symmetry=none

mh

0 1
XXX__POS__XXX

XXX__CHARGES__XXX

