%chk=XXX__NAME__XXX.chk
%mem=38GB
%nproc=5
#hf/STO-3G symmetry=none charge force

XXX__NAME__XXX

0 1
XXX__POS__XXX
XXX__FIX__XXX

XXX__CHARGES__XXX

