%chk=XXX__NAME__XXX.chk
%mem=60GB
%nproc=8
#wb97xd 6-311++g** charge symmetry=none Pop=ESP density=current td(nstates=1,root=1)

XXX__NAME__XXX

0 1
XXX__POS__XXX

XXX__CHARGES__XXX

