%chk=XXX__NAME__XXX.chk
%mem=28GB
%nproc=4
#pbepbe 6-31g* charge symmetry=none Pop=ESP density=current td(nstates=1,root=1)

XXX__NAME__XXX

0 1
XXX__POS__XXX

XXX__CHARGES__XXX

