%chk=2HC1.chk
%mem=2GB
%nproc=4
#wb97xd 6-311++g** opt td(nstates=1,root=1)

2HC1

0 1
     C   4.889283  -0.174536  -2.348763
     C   6.142152  -0.756973  -2.099399
     C   3.808876  -0.377730  -1.438126
     H   6.950152  -0.549903  -2.801071
     H   3.740523   0.909877  -3.373564
     O   4.731885   0.579229  -3.454504
     C   6.334781  -1.553487  -0.980365
     H   7.312416  -1.999445  -0.790597
     C   4.045903  -1.200153  -0.316296
     C   2.517088   0.285034  -1.705922
     H   3.245493  -1.397211   0.395094
     O   2.419632   1.024996  -2.751970
     C   5.281639  -1.785028  -0.085236
     H   5.430460  -2.422904   0.785524
     C   1.397020   0.111006  -0.819642
     H   1.503016  -0.576352   0.017202
     C   0.214142   0.777890  -1.007752
     H   0.171273   1.472914  -1.853314
     H  -0.336053  -0.936842   1.096227
     C  -0.986556   0.651464  -0.242525
     C  -1.160550  -0.283514   0.808113
     C  -2.352761  -0.406395   1.483657
     C  -2.105003   1.455737  -0.568596
     H  -2.007624   2.173249  -1.384631
     H  -2.428449  -1.143751   2.278583
     C  -3.470714   0.418513   1.157643
     C  -3.305088   1.355916   0.101027
     H  -4.133261   1.992856  -0.199534
     N  -4.644610   0.314123   1.832121
     C  -4.789940  -0.667906   2.895307
     C  -5.758197   1.198550   1.518413
     H  -4.597320  -1.685631   2.521936
     H  -5.809610  -0.627754   3.289287
     H  -4.090359  -0.466658   3.720157
     H  -5.457443   2.253528   1.607053
     H  -6.576083   1.007403   2.219938
     H  -6.126116   1.029887   0.494522

-18.097855  -0.756976  -2.099393  -0.088837
-17.905225  -1.553488  -0.980359  -0.114171
-17.289844  -0.549908  -2.801076   0.023897
-16.927581  -1.999445  -0.790602   0.077080
-16.961014  -3.551308   5.053503  -0.011619
-16.909941  -0.667908   2.895303   0.535104
-16.863628  -4.268820   4.237466   0.028506
-17.929605  -0.627755   3.289288   0.075712
-17.243797   3.745293  -1.703800   0.024559
-16.948455   2.269036   5.321149   0.038865
-17.878197   1.198552   1.518417   0.584973
-17.577440   2.253526   1.607055   0.092414
-16.905584   1.574006   6.166712   0.094506
 -9.169853 -13.158464  -6.629850   0.038864
-10.370544 -13.032041  -5.864626  -0.151583
 -9.000741 -10.691391  -9.760538  -0.030651
-11.437921 -10.952908  -8.348896   0.535104
 -9.212712 -13.853494  -7.475413   0.094577
 -9.076422 -11.428754  -8.965618   0.058014
-10.738333 -10.751661  -7.524045   0.074730
-11.736751 -11.974178  -4.138439  -0.030651
-11.812432 -11.236825  -3.343519   0.058014
-13.981313 -10.694940  -3.100161   0.139046
-13.474343 -11.913918  -1.901945   0.074730
 -8.311124 -10.662727  -1.438122  -0.046979
-10.693213 -14.071587  -1.409730   0.038240
 -8.240111 -14.228948  -2.827118   0.584973
 -9.720039 -11.443729  -4.525869   0.039968
 -9.865050 -13.434648  -1.109162   0.081081
 -8.540856 -13.173974  -2.915756   0.092413
 -9.353696 -15.113376  -3.140820  -2.578015
-14.472761 -10.691391   1.483661  -0.030651
 -9.966721 -12.206043   3.273333   1.088543
 -8.713865 -11.623603   3.522706  -0.088796
 -8.521235 -10.827091   4.641740  -0.114171
 -9.574377 -10.595545   5.536868   0.050125
-10.810108 -11.180422   5.305800  -0.056339
-11.047134 -12.002842   4.183978  -0.046978
-12.338919 -12.665607   3.916175   1.417666
 -8.874511 -11.682207   0.395099   0.024560
-10.616984 -10.861351   0.017204   0.085752
-12.456049 -11.221840   1.096231   0.039967
-11.990678 -13.254249   0.075932   0.028507
-11.115484 -13.290452   2.248536   1.000000
-10.124131 -12.959799   2.167600  -1.989921
 -8.494207 -13.579121   7.140516   0.584972
-10.641864 -10.834908   8.443123   0.023897
-11.610521 -10.983362   6.017198   0.024560
 -8.545627 -11.752824   8.911388   0.075712
 -9.312092 -13.387974   7.842042   0.069071
 -8.862129 -13.410468   6.116619   0.085345
 -8.752984  -8.829261 -11.812796  -0.011617
-10.029304  -5.718851 -12.570104   0.085752
-10.781244  -8.292148 -11.443727   0.081081
 -8.655598  -8.111749 -12.628832   0.028507
-13.415565  -5.317036 -10.204133   1.088543
-15.308200  -6.037922  -6.614501  -0.056340
-12.335164  -5.520227 -11.114778  -0.046979
-12.659311  -7.349085  -6.111155  -0.145740
-11.476435  -8.015964  -5.923050   0.038865
-10.275744  -7.889541  -6.688274  -0.151583
 -8.909536  -6.831678  -8.414461  -0.030650
-10.118697  -9.866483 -10.086552   1.055810
 -9.953063  -8.929087 -11.143170   0.038241
 -9.157294  -8.693808  -6.362204  -0.011619
-12.406177  -9.086448  -9.725782   0.584973
-14.507787  -5.840862  -7.325899   0.024560
-12.765314  -6.661718  -6.948004   0.085752
-10.926237  -6.301229  -8.027031   0.039968
 -8.833843  -6.094325  -9.209381   0.058014
-12.105420  -8.031474  -9.637144   0.092414
-11.292592  -9.970876  -9.412080  -2.578016
-16.151575  -7.063543  -4.582034   1.088542
-15.071174  -6.860342  -5.492679  -0.046979
-13.779389  -7.523107  -5.224876   1.417666
-11.905863  -9.507115  -1.007750   0.038825
-13.106554  -9.633538  -0.242526  -0.151542
-11.645546  -5.548891  -2.792362  -0.030625
-14.225004  -8.829261  -0.568597  -0.011617
-15.501324  -5.718851  -1.325905   0.085752
-11.948722  -8.812085  -1.853314   0.094577
-11.433564  -8.710994  -5.077487   0.094506
-13.662247  -6.079340  -2.404932   0.039967
-11.569853  -6.286254  -3.587282   0.057989
-16.253264  -8.292148  -0.199528   0.081081
-14.127618  -8.111749  -1.384633   0.028507
 -9.907943  -5.609161  -5.028856   0.074731
-15.002824  -8.147952  -3.557237   1.000000
-15.994177  -7.817299  -3.476302  -1.989933
-13.681930  -8.263072  -4.178828  -1.769085
 -9.602909  -9.999962  -1.705925   1.417613
-10.722975 -10.173994  -0.819646  -0.145733
 -9.208366  -5.810408  -4.204004   0.535104
 -9.254668  -9.411320  -5.546167   0.028507
 -9.400985  -6.828129  -3.830640   0.139045
 -8.379474  -9.375127  -3.373563   1.000000
 -9.700368  -9.260007  -2.751973  -1.769609
-15.747764  -7.889541   4.555925  -0.151583
-14.381556  -6.831678   2.829738  -0.030650
-15.425083  -8.929087   0.101029   0.038241
-14.629314  -8.693808   4.881995  -0.011619
-16.398257  -6.301229   3.217168   0.039968
-14.305863  -6.094325   2.034818   0.058014
-12.643953  -6.771418   0.593244   0.074731
-10.949093  -5.684591   5.293758  -0.114259
 -9.895951  -5.453045   4.398629   0.050125
 -8.660220  -6.037922   4.629698  -0.056340
-13.263601  -7.656586   3.155752   1.055867
-13.429223  -8.593992   4.212369   0.038241
-11.944376  -6.570171   1.418096   0.535105
-10.976121  -8.436621   2.794982   0.584971
-11.926737  -5.238634   5.104001   0.077170
-12.601054  -9.230931   4.512927   0.081080
-12.136995  -5.552440   1.791460   0.139045
-10.924701  -6.610324   1.024110   0.075712
-11.276866  -9.491605   2.706344   0.092413
-10.158236  -8.245474   2.093456   0.069062
-10.608199  -8.267957   3.818879   0.085344
-12.089706  -7.552193   2.481280  -2.578014
-15.379963  -5.609161   6.215343   0.074731
 -9.503595  -7.063543   6.662165   1.088542
-10.756463  -6.481103   6.412792  -0.088795
-12.631961  -6.927523  10.020729   0.050124
-11.396230  -6.342657  10.251797  -0.056341
 -8.423194  -6.860342   5.751520  -0.046979
-14.680386  -5.810408   7.040195   0.535104
-11.564469  -6.688171   7.114463   0.023856
-12.780793  -7.565399   9.149978   0.120614
 -9.425545  -9.957670   6.407619   0.120614
-10.595817  -6.539707   9.540399   0.024559
 -8.853344  -5.718851   9.918294   0.085752
 -9.605284  -8.292148  11.044671   0.081081
-14.873005  -6.828129   7.413559   0.139045
-13.660711  -5.770255   6.646210   0.075712
 -8.354844  -8.147952   7.686962   1.000000
-12.860141  -9.705769   7.789700  -1.989921
 -9.346197  -7.817299   7.767897  -1.989933
-12.239605  -5.317036  12.284265   1.088543
-11.159204  -5.520227  11.373620  -0.046979
 -8.942737  -9.866483  12.401846   1.055810
 -8.777103  -8.929087  11.345228   0.038241
-12.433205  -1.553488 -12.224558  -0.114171
 -9.923301  -5.031494 -11.733254  -0.145733
 -8.740425  -4.364604 -11.545150   0.038865
 -8.701911  -1.427671 -13.970996   0.535105
-11.455561  -1.999445 -12.034801   0.077080
 -8.509293  -0.409940 -14.344360   0.139046
 -9.721587  -1.467824 -13.577010   0.075712
-10.488052  -3.102974 -14.646356   0.069071
 -8.556582  -2.409693 -15.034180  -2.578015
-13.486347  -1.785023 -11.329430   0.050124
-15.361845  -1.338603  -7.721493  -0.088796
-15.169215  -0.542091  -6.602459  -0.114171
-16.222357  -0.310545  -5.707331   0.050125
-11.043379  -4.857462 -10.846975   1.417613
 -9.169853  -2.873464  -6.629850   0.038864
-10.370544  -2.747041  -5.864626  -0.151583
 -9.000741  -0.406391  -9.760538  -0.030651
-11.488994  -3.551308  -6.190696  -0.011619
-11.437921  -0.667908  -8.348896   0.535104
-14.553839  -1.545671  -8.423164   0.023857
-14.191571  -0.096134  -6.412702   0.077081
-13.337515  -2.422899 -10.458679   0.120614
 -8.697554  -3.669585 -10.699586   0.094506
 -9.212712  -3.568494  -7.475413   0.094577
 -9.076422  -1.143754  -8.965618   0.058014
-13.517254  -4.088431  -5.821628   0.081080
-11.391608  -4.268820  -7.006733   0.028506
-11.245303  -1.685629  -8.722260   0.139046
-12.457585  -0.627755  -7.954911   0.075712
-10.738333  -0.466661  -7.524045   0.074730
-12.266814  -4.232627  -9.179337   1.000000
-13.258167  -4.563269  -9.098401  -1.989933
-10.945920  -4.117507  -9.800927  -1.769610
-15.395321  -5.031494  -0.489055  -0.145733
-14.212445  -4.364604  -0.300951   0.038865
-13.011754  -4.491038  -1.066175  -0.151583
-11.736751  -1.689178  -4.138439  -0.030651
-12.854707  -2.514086  -4.464453   1.055866
-12.689085  -3.451492  -5.521070   0.038241
-11.893304  -3.686761  -0.740104  -0.011617
-14.173931  -1.427671  -2.726797   0.535105
-15.142187  -3.294121  -4.103683   0.584972
-11.812432  -0.951825  -3.343519   0.058014
-13.981313  -0.409940  -3.100161   0.139046
-15.193607  -1.467824  -2.332811   0.075712
-13.474343  -1.628918  -1.901945   0.074730
-14.841430  -4.349105  -4.015045   0.092414
-15.960072  -3.102974  -3.402157   0.069071
-15.510109  -3.125468  -5.127580   0.085345
-14.028602  -2.409693  -3.789981  -2.578015
 -8.311124  -0.377727  -1.438122  -0.046979
-10.527591  -4.723983  -2.466348   1.055811
-10.693213  -3.786587  -1.409730   0.038240
 -8.240111  -3.943948  -2.827118   0.584973
 -9.720039  -1.158729  -4.525869   0.039968
 -9.865050  -3.149648  -1.109162   0.081081
 -8.540856  -2.888974  -2.915756   0.092413
 -9.353696  -4.828376  -3.140820  -2.578015
-16.515399  -4.857462   0.397224   1.417613
-14.641873  -2.873464   4.614349   0.038864
-15.842564  -2.747041   5.379573  -0.151583
-14.472761  -0.406391   1.483661  -0.030651
-14.169574  -3.669585   0.544613   0.094506
-14.684732  -3.568494   3.768786   0.094577
-14.548442  -1.143754   2.278581   0.058014
-16.717323  -1.685629   2.521939   0.139046
-16.210353  -0.466661   3.720154   0.074730
-16.417940  -4.117507   1.443272  -1.769610
 -9.966721  -1.921043   3.273333   1.088543
 -8.713865  -1.338603   3.522706  -0.088796
 -8.521235  -0.542091   4.641740  -0.114171
 -9.574377  -0.310545   5.536868   0.050125
-10.810108  -0.895422   5.305800  -0.056339
-11.047134  -1.717842   4.183978  -0.046978
-12.338919  -2.380607   3.916175   1.417666
-13.458985  -2.206585   4.802454  -0.145732
-10.044783  -4.815170   3.527879   0.120614
 -8.874511  -1.397207   0.395099   0.024560
-10.616984  -0.576351   0.017204   0.085752
-12.456049  -0.936840   1.096231   0.039967
-11.990678  -2.969249   0.075932   0.028507
-11.115484  -3.005452   2.248536   1.000000
-10.124131  -2.674799   2.167600  -1.989921
-12.436378  -3.120572   2.870127  -1.769665
-12.702731  -0.174536   8.895432   1.088543
-11.449875  -0.756976   9.144806  -0.088837
-11.257245  -1.553488  10.263840  -0.114171
-12.310387  -1.785023  11.158968   0.050124
-13.546118  -1.200157  10.927900  -0.056339
-13.783144  -0.377727   9.806077  -0.046979
 -8.747341  -5.031494  10.755144  -0.145733
-13.712131  -3.943948   8.417081   0.584973
-10.641864  -0.549908   8.443123   0.023897
-10.279601  -1.999445  10.453597   0.077080
-11.610521  -0.698362   6.017198   0.024560
-13.352994  -1.519218   5.639303   0.085752
-15.192059  -1.158729   6.718330   0.039968
-14.012876  -2.888974   8.328443   0.092413
-12.894246  -4.135095   7.715556   0.069062
-13.344209  -4.112612   9.440978   0.085344
-14.825716  -4.828376   8.103379  -2.578015
 -9.867419  -4.857462  11.641423   1.417613
-10.261961  -0.667908  14.139502   0.535104
-12.161555  -2.422899  12.029719   0.120614
-10.069343  -1.685629  13.766138   0.139046
 -9.562373  -0.466661  14.964353   0.074730
-11.090854  -4.232627  13.309061   1.000000
 -9.769960  -4.117507  12.687471  -1.769610
-12.572190   3.942343 -12.236601  -0.056341
 -8.752984   1.455739 -11.812796  -0.011617
-11.771777   3.745293 -12.947999   0.024559
-10.029304   4.566149 -12.570104   0.085752
-10.781244   1.992852 -11.443727   0.081081
 -8.655598   2.173251 -12.628832   0.028507
 -9.530804   2.137048 -14.801436   1.000000
-10.522157   2.467701 -14.720501  -1.989933
 -8.209910   2.021928 -15.423027  -1.769085
-13.415565   4.967964 -10.204133   1.088543
-15.308200   4.247078  -6.614501  -0.056340
-12.335164   4.764773 -11.114778  -0.046979
-12.659311   2.935915  -6.111155  -0.145740
-11.476435   2.269036  -5.923050   0.038865
-10.275744   2.395459  -6.688274  -0.151583
 -8.909536   3.453322  -8.414461  -0.030650
-10.118697   0.418517 -10.086552   1.055810
 -9.953063   1.355913 -11.143170   0.038241
 -9.157294   1.591192  -6.362204  -0.011619
-12.406177   1.198552  -9.725782   0.584973
-14.507787   4.444138  -7.325899   0.024560
-12.765314   3.623282  -6.948004   0.085752
-10.926237   3.983771  -8.027031   0.039968
 -8.833843   4.190675  -9.209381   0.058014
-12.105420   2.253526  -9.637144   0.092414
-13.224062   1.007405  -9.024257   0.069079
-12.774099   1.029888 -10.749679   0.085345
-11.292592   0.314124  -9.412080  -2.578016
-16.151575   3.221457  -4.582034   1.088542
-15.071174   3.424658  -5.492679  -0.046979
-13.779389   2.761893  -5.224876   1.417666
-11.905863   0.777885  -1.007750   0.038825
-13.106554   0.651462  -0.242526  -0.151542
-11.645546   4.736109  -2.792362  -0.030625
-14.225004   1.455739  -0.568597  -0.011617
-16.073525   0.327330  -4.836580   0.120614
-15.501324   4.566149  -1.325905   0.085752
-11.948722   1.472915  -1.853314   0.094577
-11.433564   1.574006  -5.077487   0.094506
-13.662247   4.205660  -2.404932   0.039967
-11.569853   3.998746  -3.587282   0.057989
-16.253264   1.992852  -0.199528   0.081081
-14.127618   2.173251  -1.384633   0.028507
 -9.907943   4.675839  -5.028856   0.074731
-15.002824   2.137048  -3.557237   1.000000
-15.994177   2.467701  -3.476302  -1.989933
-13.681930   2.021928  -4.178828  -1.769085
 -8.213083   3.589012  -0.328342  -0.114259
 -9.602909   0.285038  -1.705925   1.417613
-10.722975   0.111006  -0.819646  -0.145733
 -9.208366   4.474592  -4.204004   0.535104
 -9.190727   3.143055  -0.518099   0.077169
 -9.254668   0.873680  -5.546167   0.028507
 -9.400985   3.456871  -3.830640   0.139045
 -8.379474   0.909873  -3.373563   1.000000
 -9.700368   1.024993  -2.751973  -1.769609
-15.747764   2.395459   4.555925  -0.151583
-14.381556   3.453322   2.829738  -0.030650
-15.590717   0.418517   1.157647   1.055810
-15.425083   1.355913   0.101029   0.038241
-14.629314   1.591192   4.881995  -0.011619
-16.398257   3.983771   3.217168   0.039968
-14.305863   4.190675   2.034818   0.058014
-12.643953   3.513582   0.593244   0.074731
-16.764612   0.314124   1.832119  -2.578016
-13.263601   2.628414   3.155752   1.055867
-13.429223   1.691008   4.212369   0.038241
-11.944376   3.714829   1.418096   0.535105
-10.976121   1.848379   2.794982   0.584971
 -8.828464   4.592592   1.492375   0.023856
-12.601054   1.054069   4.512927   0.081080
-12.136995   4.732560   1.791460   0.139045
-10.924701   3.674676   1.024110   0.075712
-11.276866   0.793395   2.706344   0.092413
-10.158236   2.039526   2.093456   0.069062
-10.608199   2.017043   3.818879   0.085344
-12.089706   2.732807   2.481280  -2.578014
-15.379963   4.675839   6.215343   0.074731
-13.685103   3.589012  10.915857  -0.114259
-12.631961   3.357477  10.020729   0.050124
-11.396230   3.942343  10.251797  -0.056341
-15.074929   0.285038   9.538274   1.417613
-14.680386   4.474592   7.040195   0.535104
-12.780793   2.719601   9.149978   0.120614
 -9.425545   0.327330   6.407619   0.120614
-10.595817   3.745293   9.540399   0.024559
 -8.853344   4.566149   9.918294   0.085752
 -9.605284   1.992852  11.044671   0.081081
-14.726688   0.873680   5.698032   0.028507
-14.873005   3.456871   7.413559   0.139045
-13.660711   4.514745   6.646210   0.075712
-13.851494   0.909873   7.870636   1.000000
-12.860141   0.579231   7.789700  -1.989921
-15.172388   1.024993   8.492226  -1.769609
-12.239605   4.967964  12.284265   1.088543
-11.159204   4.764773  11.373620  -0.046979
 -8.942737   0.418517  12.401846   1.055810
 -8.777103   1.355913  11.345228   0.038241
-11.230217   1.198552  12.762616   0.584973
 -9.750277   3.983771  14.461367   0.039968
-10.929460   2.253526  12.851254   0.092414
-12.048102   1.007405  13.464141   0.069079
-11.598139   1.029888  11.738719   0.085345
-10.116632   0.314124  13.076318  -2.578016
 -9.923301   5.253506 -11.733254  -0.145733
 -8.740425   5.920396 -11.545150   0.038865
-11.043379   5.427538 -10.846975   1.417613
 -9.169853   7.411536  -6.629850   0.038864
-10.370544   7.537959  -5.864626  -0.151583
 -9.000741   9.878609  -9.760538  -0.030651
-11.488994   6.733692  -6.190696  -0.011619
-11.437921   9.617092  -8.348896   0.535104
 -8.697554   6.615415 -10.699586   0.094506
 -9.212712   6.716506  -7.475413   0.094577
 -9.076422   9.141246  -8.965618   0.058014
-13.517254   6.196569  -5.821628   0.081080
-11.391608   6.016180  -7.006733   0.028506
-11.245303   8.599371  -8.722260   0.139046
-12.457585   9.657245  -7.954911   0.075712
-10.738333   9.818339  -7.524045   0.074730
-12.266814   6.052373  -9.179337   1.000000
-13.258167   5.721731  -9.098401  -1.989933
-10.945920   6.167493  -9.800927  -1.769610
-15.395321   5.253506  -0.489055  -0.145733
-14.212445   5.920396  -0.300951   0.038865
-13.011754   5.793962  -1.066175  -0.151583
-11.736751   8.595822  -4.138439  -0.030651
-12.854707   7.770914  -4.464453   1.055866
-12.689085   6.833508  -5.521070   0.038241
-11.893304   6.598239  -0.740104  -0.011617
-14.173931   8.857329  -2.726797   0.535105
-15.142187   6.990879  -4.103683   0.584972
-11.812432   9.333175  -3.343519   0.058014
-13.981313   9.875060  -3.100161   0.139046
-15.193607   8.817176  -2.332811   0.075712
-13.474343   8.656082  -1.901945   0.074730
-14.841430   5.935895  -4.015045   0.092414
-15.960072   7.182026  -3.402157   0.069071
-15.510109   7.159532  -5.127580   0.085345
-14.028602   7.875307  -3.789981  -2.578015
 -8.311124   9.907273  -1.438122  -0.046979
-10.527591   5.561017  -2.466348   1.055811
-10.693213   6.498413  -1.409730   0.038240
 -8.240111   6.341052  -2.827118   0.584973
 -9.720039   9.126271  -4.525869   0.039968
 -9.865050   7.135352  -1.109162   0.081081
 -8.540856   7.396026  -2.915756   0.092413
 -9.353696   5.456624  -3.140820  -2.578015
-16.515399   5.427538   0.397224   1.417613
-14.641873   7.411536   4.614349   0.038864
-14.472761   9.878609   1.483661  -0.030651
-14.169574   6.615415   0.544613   0.094506
-14.684732   6.716506   3.768786   0.094577
-14.548442   9.141246   2.278581   0.058014
-16.417940   6.167493   1.443272  -1.769610
 -9.966721   8.363957   3.273333   1.088543
 -8.713865   8.946397   3.522706  -0.088796
 -8.521235   9.742909   4.641740  -0.114171
 -9.574377   9.974455   5.536868   0.050125
-10.810108   9.389578   5.305800  -0.056339
-11.047134   8.567158   4.183978  -0.046978
-12.338919   7.904393   3.916175   1.417666
-13.458985   8.078415   4.802454  -0.145732
 -8.874511   8.887793   0.395099   0.024560
-10.616984   9.708649   0.017204   0.085752
-12.456049   9.348160   1.096231   0.039967
-11.990678   7.315751   0.075932   0.028507
-11.115484   7.279548   2.248536   1.000000
-10.124131   7.610201   2.167600  -1.989921
-12.436378   7.164428   2.870127  -1.769665
-11.449875   9.528024   9.144806  -0.088837
-11.257245   8.731512  10.263840  -0.114171
 -8.747341   5.253506  10.755144  -0.145733
-13.712131   6.341052   8.417081   0.584973
 -8.494207   6.990879   7.140516   0.584972
-10.641864   9.735092   8.443123   0.023897
-10.279601   8.285555  10.453597   0.077080
-11.610521   9.586638   6.017198   0.024560
-13.352994   8.765782   5.639303   0.085752
 -8.545627   8.817176   8.911388   0.075712
-14.012876   7.396026   8.328443   0.092413
-12.894246   6.149905   7.715556   0.069062
 -9.312092   7.182026   7.842042   0.069071
-13.344209   6.172388   9.440978   0.085344
 -8.862129   7.159532   6.116619   0.085345
-14.825716   5.456624   8.103379  -2.578015
 -9.867419   5.427538  11.641423   1.417613
 -9.769960   6.167493  12.687471  -1.769610
-11.476435  12.554036  -5.923050   0.038865
-10.275744  12.680459  -6.688274  -0.151583
-10.118697  10.703517 -10.086552   1.055810
 -9.157294  11.876192  -6.362204  -0.011619
-11.292592  10.599124  -9.412080  -2.578016
-11.905863  11.062885  -1.007750   0.038825
-13.106554  10.936462  -0.242526  -0.151542
-11.948722  11.757915  -1.853314   0.094577
-11.433564  11.859006  -5.077487   0.094506
 -8.213083  13.874012  -0.328342  -0.114259
 -9.602909  10.570038  -1.705925   1.417613
-10.722975  10.396006  -0.819646  -0.145733
 -9.208366  14.759592  -4.204004   0.535104
 -9.190727  13.428055  -0.518099   0.077169
 -9.254668  11.158680  -5.546167   0.028507
 -9.400985  13.741871  -3.830640   0.139045
 -8.379474  11.194873  -3.373563   1.000000
 -9.700368  11.309993  -2.751973  -1.769609
 -8.660220  14.532078   4.629698  -0.056340
-10.976121  12.133379   2.794982   0.584971
 -8.828464  14.877592   1.492375   0.023856
-12.601054  11.339069   4.512927   0.081080
-10.924701  13.959676   1.024110   0.075712
-11.276866  11.078395   2.706344   0.092413
-10.158236  12.324526   2.093456   0.069062
-10.608199  12.302043   3.818879   0.085344
-12.089706  13.017807   2.481280  -2.578014
 -9.503595  13.506457   6.662165   1.088542
 -8.423194  13.709658   5.751520  -0.046979
 -9.425545  10.612330   6.407619   0.120614
 -8.354844  12.422048   7.686962   1.000000
 -9.346197  12.752701   7.767897  -1.989933
 -5.477073 -15.969591  -5.950441  -0.114259
 -4.423931 -15.738045  -6.845570   0.050125
 -3.188200 -16.322922  -6.614501  -0.056340
 -6.454717 -15.523634  -6.140198   0.077170
 -2.387787 -16.125862  -7.325899   0.024560
 -5.284443 -16.766103  -4.831407  -0.088795
 -5.924210 -16.627657  -0.992402  -0.056341
 -2.951174 -17.145342  -5.492679  -0.046979
 -5.123797 -16.824707  -1.703800   0.024559
 -3.381324 -16.003851  -1.325905   0.085752
 -1.542247 -16.364340  -2.404932   0.039967
 -6.767585 -15.602036   1.040066   1.088543
 -8.020453 -16.184476   0.790692  -0.088796
 -5.687184 -15.805227   0.129421  -0.046979
 -2.261556 -17.116678   2.829738  -0.030650
 -4.278257 -16.586229   3.217168   0.039968
 -2.185863 -16.379325   2.034818   0.058014
 -0.523953 -17.056418   0.593244   0.074731
 -1.143601 -17.941586   3.155752   1.055867
  0.175624 -16.855171   1.418096   0.535105
  0.193263 -15.523634   5.104001   0.077170
 -0.016995 -15.837440   1.791460   0.139045
  0.030294 -17.837193   2.481280  -2.578014
 -3.259963 -15.894161   6.215343   0.074731
 -2.560386 -16.095408   7.040195   0.535104
 -1.540711 -16.055255   6.646210   0.075712
 -1.758691 -10.459536 -13.592966   1.088543
 -0.505835 -11.041976 -13.343592  -0.088837
 -0.313205 -11.838488 -12.224558  -0.114171
 -2.602078 -11.485157 -11.560498  -0.056339
 -2.839104 -10.662727 -12.682321  -0.046979
  0.302176 -10.834908 -14.045275   0.023897
 -1.366347 -12.070023 -11.329430   0.050124
 -4.494701 -12.206043  -7.970866   1.088543
 -3.241845 -11.623603  -7.721493  -0.088796
 -3.049215 -10.827091  -6.602459  -0.114171
 -4.102357 -10.595545  -5.707331   0.050125
 -5.338088 -11.180422  -5.938399  -0.056339
 -5.575114 -12.002842  -7.060221  -0.046978
 -6.866899 -12.665607  -7.328024   1.417666
 -7.986965 -12.491585  -6.441745  -0.145732
 -2.433839 -11.830671  -8.423164   0.023857
 -2.071571 -10.381134  -6.412702   0.077081
 -1.217515 -12.707899 -10.458679   0.120614
 -4.572763 -15.100170  -7.716320   0.120614
 -3.402491 -11.682207 -10.849100   0.024560
 -5.144964 -10.861351 -11.226995   0.085752
 -6.984029 -11.221840 -10.147968   0.039967
 -1.397254 -14.373431  -5.821628   0.081080
 -0.337585 -10.912755  -7.954911   0.075712
 -0.146814 -14.517627  -9.179337   1.000000
 -5.643464 -13.290452  -8.995663   1.000000
 -1.138167 -14.848269  -9.098401  -1.989933
 -4.652111 -12.959799  -9.076599  -1.989921
 -6.964358 -13.405572  -8.374072  -1.769665
 -7.230711 -10.459536  -2.348767   1.088543
 -5.977855 -11.041976  -2.099393  -0.088837
 -5.785225 -11.838488  -0.980359  -0.114171
 -6.838367 -12.070023  -0.085231   0.050124
 -8.074098 -11.485157  -0.316299  -0.056339
 -3.275321 -15.316494  -0.489055  -0.145733
 -2.092445 -14.649604  -0.300951   0.038865
 -0.891754 -14.776038  -1.066175  -0.151583
  0.383249 -11.974178  -4.138439  -0.030651
 -0.734707 -12.799086  -4.464453   1.055866
 -0.569085 -13.736492  -5.521070   0.038241
  0.226696 -13.971761  -0.740104  -0.011617
 -2.053931 -11.712671  -2.726797   0.535105
 -3.022187 -13.579121  -4.103683   0.584972
 -5.169844 -10.834908  -2.801076   0.023897
 -4.807581 -12.284445  -0.790602   0.077080
 -6.138501 -10.983362  -5.227001   0.024560
 -7.880974 -11.804218  -5.604896   0.085752
  0.307568 -11.236825  -3.343519   0.058014
 -1.861313 -10.694940  -3.100161   0.139046
 -3.073607 -11.752824  -2.332811   0.075712
 -1.354343 -11.913918  -1.901945   0.074730
 -2.721430 -14.634105  -4.015045   0.092414
 -7.422226 -14.420095  -3.528643   0.069062
 -3.840072 -13.387974  -3.402157   0.069071
 -7.872189 -14.397612  -1.803221   0.085344
 -3.390109 -13.410468  -5.127580   0.085345
 -1.908602 -12.694693  -3.789981  -2.578015
 -4.395399 -15.142462   0.397224   1.417613
 -2.521873 -13.158464   4.614349   0.038864
 -3.722564 -13.032041   5.379573  -0.151583
 -2.352761 -10.691391   1.483661  -0.030651
 -4.841014 -13.836308   5.053503  -0.011619
 -4.789941 -10.952908   2.895303   0.535104
 -7.905859 -11.830671   2.821035   0.023857
 -7.543591 -10.381134   4.831497   0.077081
 -6.689535 -12.707899   0.785520   0.120614
 -2.049574 -13.954585   0.544613   0.094506
 -2.564732 -13.853494   3.768786   0.094577
 -2.428442 -11.428754   2.278581   0.058014
 -6.869274 -14.373431   5.422571   0.081080
 -4.743628 -14.553820   4.237466   0.028506
 -4.597323 -11.970629   2.521939   0.139046
 -5.809605 -10.912755   3.289288   0.075712
 -4.090353 -10.751661   3.720154   0.074730
 -5.618834 -14.517627   2.064862   1.000000
 -6.610187 -14.848269   2.145798  -1.989933
 -4.297940 -14.402507   1.443272  -1.769610
 -0.218919 -12.665607   3.916175   1.417666
 -1.338985 -12.491585   4.802454  -0.145732
 -0.336049 -11.221840   1.096231   0.039967
  0.129322 -13.254249   0.075932   0.028507
 -0.316378 -13.405572   2.870127  -1.769665
 -5.088771 -11.974178   7.105760  -0.030651
 -6.206727 -12.799086   6.779746   1.055866
 -6.041105 -13.736492   5.723129   0.038241
 -5.245324 -13.971761  10.504095  -0.011617
 -7.525951 -11.712671   8.517402   0.535105
 -5.164452 -11.236825   7.900680   0.058014
 -7.333333 -10.694940   8.144038   0.139046
 -6.826363 -11.913918   9.342254   0.074730
 -8.193450 -14.634105   7.229154   0.092414
 -7.380622 -12.694693   7.454218  -2.578015
 -0.582731 -10.459536   8.895432   1.088543
 -0.190387 -12.070023  11.158968   0.050124
 -1.426118 -11.485157  10.927900  -0.056339
 -1.663144 -10.662727   9.806077  -0.046979
 -3.879611 -15.008983   8.777851   1.055811
 -4.045233 -14.071587   9.834469   0.038240
 -1.592131 -14.228948   8.417081   0.584973
 -1.232994 -11.804218   5.639303   0.085752
 -3.072059 -11.443729   6.718330   0.039968
 -3.217070 -13.434648  10.135037   0.081081
 -1.892876 -13.173974   8.328443   0.092413
 -0.774246 -14.420095   7.715556   0.069062
 -1.224209 -14.397612   9.440978   0.085344
 -2.705716 -15.113376   8.103379  -2.578015
 -3.969004 -10.861351  11.261403   0.085752
 -0.041555 -12.707899  12.029719   0.120614
 -2.226531 -11.682207  11.639298   0.024560
 -5.808069 -11.221840  12.340430   0.039967
 -5.342698 -13.254249  11.320131   0.028507
 -0.005053  -5.684591 -17.194640  -0.114259
 -0.982697  -5.238634 -17.384397   0.077170
 -6.433843  -9.507115 -12.251949   0.038825
 -7.634534  -9.633538 -11.486725  -0.151542
 -6.173526  -5.548891 -14.036561  -0.030625
 -6.476702  -8.812085 -13.097513   0.094577
 -8.190227  -6.079340 -13.649131   0.039967
 -6.097833  -6.286254 -14.831481   0.057989
 -4.435923  -5.609161 -16.273055   0.074731
  0.187577  -6.481103 -16.075606  -0.088795
 -2.741063  -6.695988 -11.572541  -0.114259
 -1.687921  -6.927523 -12.467669   0.050124
 -0.452190  -6.342657 -12.236601  -0.056341
 -4.130889  -9.999962 -12.950124   1.417613
 -5.250955 -10.173994 -12.063845  -0.145733
 -3.736346  -5.810408 -15.448203   0.535104
 -0.620429  -6.688171 -15.373935   0.023856
 -3.718707  -7.141945 -11.762298   0.077169
 -1.836753  -7.565399 -13.338420   0.120614
  0.348223  -6.539707 -12.947999   0.024559
 -3.928965  -6.828129 -15.074839   0.139045
 -2.716671  -5.770255 -15.842188   0.075712
 -2.907454  -9.375127 -14.617762   1.000000
 -1.916101  -9.705769 -14.698698  -1.989921
 -4.228348  -9.260007 -13.996172  -1.769609
 -7.171933  -6.771418 -10.650955   0.074731
 -1.295565  -5.317036 -10.204133   1.088543
 -2.548433  -5.899476 -10.453507  -0.088796
 -5.477073  -5.684591  -5.950441  -0.114259
 -4.423931  -5.453045  -6.845570   0.050125
 -3.188200  -6.037922  -6.614501  -0.056340
 -0.215164  -5.520227 -11.114778  -0.046979
 -0.539311  -7.349085  -6.111155  -0.145740
 -7.791581  -7.656586  -8.088447   1.055867
 -7.957203  -8.593992  -7.031830   0.038241
 -6.472356  -6.570171  -9.826103   0.535105
 -0.286177  -9.086448  -9.725782   0.584973
 -5.504101  -8.436621  -8.449217   0.584971
 -3.356444  -5.692408  -9.751824   0.023856
 -6.454717  -5.238634  -6.140198   0.077170