&GLOBAL
  PROJECT naphthalene222.low
  RUN_TYPE GEO_OPT
  PRINT_LEVEL MEDIUM
&END GLOBAL
&FORCE_EVAL
  METHOD QS
  &SUBSYS
    &CELL
A  78.248000   0.000000   0.000000 
B   0.000000  59.348998   0.000000
C -33.512987   0.000000  73.738685
    &END CELL
    &COORD
     C   1.758238   0.114256   1.835565
     C   1.383454   0.986914   0.819134
     C   1.097522  -1.140337   1.993640
     H   2.571346   0.398715   2.520618
     H   1.885270   1.956398   0.685839
     H   1.396710  -1.820920   2.805984
     C   0.334430   0.635395  -0.082076
     C   0.069095  -1.512687   1.133501
     H  -0.442641  -2.479395   1.249936
     C  -0.334354  -0.635434   0.081958
     C  -0.069069   1.512709  -1.133531
     H   0.442653   2.479424  -1.249932
     C  -1.383484  -0.986925  -0.819111
     H  -1.885277  -1.956423  -0.685867
     C  -1.097557   1.140346  -1.993567
     H  -1.396724   1.820909  -2.805950
     C  -1.758283  -0.114241  -1.835508
     H  -2.571329  -0.398703  -2.520633
    &END COORD
    &KIND H
      BASIS_SET DZVP-GTH-PBE
      POTENTIAL GTH-PBE-q1
    &END KIND
    &KIND C
      BASIS_SET DZVP-GTH-PBE
      POTENTIAL GTH-PBE-q4
    &END KIND
  &END SUBSYS
  &DFT
    BASIS_SET_FILE_NAME /data/home/btx156/cp2k/BASIS_SET
    POTENTIAL_FILE_NAME /data/home/btx156/cp2k/POTENTIAL
    &QS
      EPS_DEFAULT 1.0E-7
    &END QS
    &MGRID
      CUTOFF 200
      NGRIDS 4
      REL_CUTOFF 30
    &END MGRID
      &SCF
      SCF_GUESS ATOMIC
      EPS_SCF 1.0E-05
      MAX_SCF 200
      &DIAGONALIZATION T
        ALGORITHM STANDARD
      &END DIAGONALIZATION
      &MIXING T
        ALPHA 0.5
        METHOD PULAY_MIXING
        NPULAY 5
      &END MIXING
      &PRINT
        &RESTART OFF
        &END RESTART
      &END PRINT
    &END SCF
     &XC
       DENSITY_CUTOFF     1.0000000000000000E-10
       GRADIENT_CUTOFF     1.0000000000000000E-10
       TAU_CUTOFF     1.0000000000000000E-10
       &XC_FUNCTIONAL  NO_SHORTCUT
         &PBE  T
         &END PBE
       &END XC_FUNCTIONAL
     &VDW_POTENTIAL
      DISPERSION_FUNCTIONAL PAIR_POTENTIAL
      &PAIR_POTENTIAL
      TYPE DFTD2
      REFERENCE_FUNCTIONAL PBE
     &END PAIR_POTENTIAL
     &END VDW_POTENTIAL
     &END XC
  &END DFT
&END FORCE_EVAL
&MOTION
  &GEO_OPT
    TYPE MINIMIZATION
     OPTIMIZER  BFGS
     MAX_ITER  600
     STEP_START_VAL  1
  &END GEO_OPT
  &CONSTRAINT
    &FIXED_ATOMS
      COMPONENTS_TO_FIX XYZ
      LIST 1
    &END FIXED_ATOMS
  &END CONSTRAINT
&END MOTION  
