&GLOBAL
  PROJECT NAPHTHA
  RUN_TYPE GEO_OPT
  PRINT_LEVEL MEDIUM
&END GLOBAL
&FORCE_EVAL
  METHOD QS
  &SUBSYS
    &CELL
A 15.6496000290         0.0000000000         0.0000000000
B  0.0000000000        11.8697996140         0.0000000000
C -6.7025973763         0.0000000000        14.7477370159
    &END CELL
    &COORD
C        7.198113572   0.111972727  12.922776533
C        1.748889081  11.757826799   1.824960483
C        0.073239646   3.079422572   5.511894690
C       12.225061518   2.855477185   1.861973935
C       10.549412197   0.111972497   5.548908031
C       -1.602409544  11.757827029   9.198828984
C       -3.278059079   3.079422680  12.885762714
C        8.873763004   2.855477129   9.235842297
C        7.198113707   6.046872705  12.922776861
C        1.748888946   5.822926909   1.824960155
C        0.073239649   9.014322485   5.511894719
C       12.225061732   8.790376934   1.861974301
C       10.549412331   6.046872341   5.548908284
C       -1.602409678   5.822927273   9.198828731
C       -3.278058865   9.014322429  12.885763080
C        8.873763007   8.790377042   9.235842326
C       -0.630862810   0.112860552  12.923678185
C        9.577865463  11.756938974   1.824058831
C        7.902216184   3.080310229   5.510993268
C        4.396084901   2.854589597   1.862875122
C        2.720435551   0.112860084   5.549809334
C        6.226567102  11.756939442   9.197927681
C        4.550917536   3.080310248  12.884861537
C        1.044786342   2.854589562   9.236743544
C       -0.630862769   6.047760388  12.923678267
C        9.577865422   5.822039226   1.824058749
C        7.902216311   9.015210052   5.510993472
C        4.396085116   8.789489366   1.862875478
C        2.720435465   6.047759810   5.549809171
C        6.226567188   5.822039804   9.197927844
C        4.550917751   9.015210017  12.884861893
C        1.044786469   8.789489385   9.236743748
C        7.570459843   0.972747532  13.933272067
C        1.376542810  10.897051817   0.814464949
C       -0.299106456   3.940197356   4.501399441
C       12.597407768   1.994702320   2.872469512
C       10.921758404   0.972747765   6.559403674
C       -1.974755751  10.897051584   8.188333342
C       -3.650404965   3.940197091  11.875267834
C        9.246109099   1.994702329  10.246337528
C        7.570459724   6.907647385  13.933271768
C        1.376542929   4.962152583   0.814465248
C       -0.299106446   9.875097639   4.501399488
C       12.597407618   7.929602169   2.872469182
C       10.921758260   6.907647714   6.559403438
C       -1.974755607   4.962152254   8.188333578
C       -3.650405115   9.875097648  11.875267504
C        9.246109109   7.929601904  10.246337575
C       -0.255598075   0.973466632  13.934255168
C        9.202600727  10.896332717   0.813481848
C        7.526951387   3.940916677   4.500416006
C        4.771350039   1.993982942   2.873452948
C        3.095700642   0.973467053   6.560387138
C        5.851302010  10.896332296   8.187349878
C        4.175652772   3.940916515  11.874284372
C        1.420051354   1.993982916  10.247321144
C       -0.255598145   6.908366724  13.934255091
C        9.202600797   4.961433244   0.813481925
C        7.526951298   9.875817052   4.500415872
C        4.771349881   7.928882745   2.873452644
C        3.095700687   6.908367327   6.560387289
C        5.851301965   4.961432641   8.187349727
C        4.175652614   9.875817026  11.874284068
C        1.420051265   7.928882583  10.247321010
C       15.317926981   0.631446214   0.080090788
C       -6.370924157  11.238353268  14.667645851
C       -1.343976442   3.598896099   3.606843676
C       13.642277694   2.336003774   3.767025250
C       11.966628266   0.631445987   7.453959700
C       -3.019625813  11.238353495   7.293777755
C       -4.695274896   3.598896045  10.980711161
C       10.290979018   2.336003625  11.140893870
C       15.317927082   6.566346196   0.080090968
C       -6.370924258   5.303453418  14.667645671
C       -1.343976565   9.533796166   3.606843585
C       13.642277748   8.270903569   3.767025416
C       11.966628385   6.566345897   7.453959852
C       -3.019625932   5.303453717   7.293777603
C       -4.695274842   9.533796017  10.980711327
C       10.290978895   8.270903515  11.140893779
C        7.493413910   0.631769606   0.080308332
C        1.453588914  11.238029876  14.667428307
C        6.480536777   3.599219355   3.606626270
C        5.817764522   2.335680511   3.767242482
C        4.142114997   0.631769290   7.454176971
C        4.804887456  11.238030192   7.293560484
C        3.129238328   3.599219304  10.980494018
C        2.466465745   2.335680425  11.141111214
C        7.493413990   6.566669465   0.080308403
C        1.453588834   5.303130149  14.667428236
C        6.480536708   9.534119366   3.606626241
C        5.817764524   8.270580310   3.767242559
C        4.142114965   6.566669081   7.454176863
C        4.804887488   5.303130533   7.293560592
C        3.129238330   9.534119280  10.980494095
C        2.466465676   8.270580259  11.141111185
C        0.075428007   1.497175009   1.126219751
C        8.871574754  10.372624781  13.621517155
C       13.898522763   4.464624912   2.560714687
C       -1.600221547   1.470274687   4.813154054
C       -3.275870885   1.497175297   8.500088180
C       12.222873596  10.372624493   6.247648836
C       10.547224273   4.464624856   9.934582955
C       -4.951520350   1.470274616  12.187022004
C        0.075427829   7.432074746   1.126219495
C        8.871574932   4.437724868  13.621517411
C       13.898523061  10.399524821   2.560715012
C       -1.600221562   7.405174758   4.813154061
C       -3.275871089   7.432075092   8.500087910
C       12.222873800   4.437724522   6.247649106
C       10.547224258  10.399524750   9.934582962
C       -4.951520052   7.405174702  12.187022329
C        7.904314898   1.496740207   1.126436594
C        1.042687805  10.373059583  13.621300312
C        6.069635559   4.464190080   2.560497516
C        6.228665486   1.470709450   4.813371009
C        4.553016357   1.496740441   8.500305282
C        4.393986296  10.373059349   6.247431734
C        2.718337013   4.464190076   9.934365864
C        2.877366787   1.470709422  12.187239214
C        7.904314798   7.431639975   1.126436479
C        1.042687905   4.438159639  13.621300427
C        6.069635865  10.399090015   2.560497802
C        6.228665640   7.405609538   4.813371152
C        4.553016435   7.431640208   8.500305360
C        4.393986218   4.438159406   6.247431656
C        2.718337167  10.399089987   9.934366007
C        2.877367093   7.405609534  12.187239500
C        1.093259845   1.132063596   1.982598838
C        7.853743041  10.737736018  12.765138178
C       12.880690853   4.099513452   1.704335545
C       -0.582389284   1.835386279   5.669533294
C       -2.258038504   1.132063491   9.356467378
C       11.205041390  10.737736123   5.391269637
C        9.529392217   4.099513432   9.078203730
C       -3.933687690   1.835386200  13.043401783
C        1.093260042   7.066963509   1.982599006
C        7.853742844   4.802836105  12.765138010
C       12.880690575  10.034413414   1.704335232
C       -0.582389331   7.770286181   5.669533286
C       -2.258038264   7.066963386   9.356467544
C       11.205041150   4.802836228   5.391269471
C        9.529392170  10.034413335   9.078203722
C       -3.933687968   7.770286161  13.043401470
C        8.922360427   1.131574366   1.982433557
C        0.024642226  10.738225248  12.765303459
C        5.051590263   4.099024180   1.704501070
C        7.246711238   1.835875599   5.669367818
C        5.571061876   1.131574277   9.356301737
C        3.375940777  10.738225337   5.391435278
C        1.700291588   4.099024111   9.078369383
C        3.895412657   1.835875503  13.043236244
C        8.922360551   7.066474182   1.982433634
C        0.024642102   4.803325432  12.765303382
C        5.051589996  10.033924111   1.704500771
C        7.246711065   7.770775502   5.669367633
C        5.571061846   7.066474047   9.356301636
C        3.375940807   4.803325567   5.391435379
C        1.700291415  10.033924015   9.078369198
C        3.895412390   7.770775433  13.043235945
H        6.388420023   0.395380943  12.239067015
H        2.558582630  11.474418847   2.508670001
H        0.882933355   3.362830689   6.195604320
H       11.415367907   2.572068955   1.178264435
H        9.739718567   0.395380909   4.865198647
H       -0.792715914  11.474418881   9.882538368
H       -2.468365183   3.362830627  13.569472672
H        8.064069298   2.572068928   8.552132708
H        6.388419921   6.330280598  12.239066975
H        2.558582732   5.539519015   2.508670041
H        0.882933355   9.297730509   6.195604307
H       11.415367836   8.506968987   1.178264343
H        9.739718440   6.330280493   4.865198629
H       -0.792715787   5.539519120   9.882538386
H       -2.468365254   9.297730482  13.569472580
H        8.064069298   8.506968925   8.552132695
H       -1.439195180   0.397245917  12.239097561
H       10.386197833  11.472553873   2.508639455
H        8.710548525   3.364695695   6.195573670
H        3.587752808   2.570203986   1.178295002
H        1.912103380   0.397245829   4.865229292
H        7.034899272  11.472553961   9.882507723
H        5.359249932   3.364695607  13.569442072
H        0.236454170   2.570203937   8.552163376
H       -1.439195213   6.332145623  12.239097551
H       10.386197866   5.537653990   2.508639465
H        8.710548483   9.299595500   6.195573639
H        3.587752720   8.505104007   1.178294943
H        1.912103406   6.332145550   4.865229321
H        7.034899246   5.537654063   9.882507694
H        5.359249844   9.299595451  13.569442013
H        0.236454128   8.505103919   8.552163345
H        7.071316959   1.940693093  14.059320986
H        1.875685694   9.929106875   0.688416030
H        0.200036310   4.908142978   4.375350418
H       12.098264997   1.026756780   2.998518351
H       10.422615661   1.940693017   6.685452559
H       -1.475613008   9.929106951   8.062284457
H       -3.151262291   4.908142950  11.749218673
H        8.746966333   1.026756748  10.372386629
H        7.071316952   7.875592612  14.059320937
H        1.875685701   3.994206648   0.688416079
H        0.200036320  10.843042513   4.375350387
H       12.098264944   6.961657017   2.998518343
H       10.422615658   7.875592491   6.685452494
H       -1.475613005   3.994206769   8.062284522
H       -3.151262344  10.843042481  11.749218665
H        8.746966343   6.961656989  10.372386598
H       -0.753718846   1.942031805  14.059885884
H        9.700721499   9.927768163   0.687851132
H        8.025072091   4.909481617   4.374785430
H        4.273229202   1.025418203   2.999083198
H        2.597579879   1.942031620   6.686017429
H        6.349422774   9.927768348   8.061719587
H        4.673773508   4.909481554  11.748653806
H        0.921930590   1.025418150  10.372951573
H       -0.753718833   7.876931255  14.059885871
H        9.700721486   3.992868005   0.687851145
H        8.025072063  10.844381111   4.374785443
H        4.273229144   6.960318413   2.999083210
H        2.597579928   7.876931052   6.686017400
H        6.349422725   3.992868208   8.061719616
H        4.673773450  10.844381058  11.748653818
H        0.921930562   6.960318350  10.372951586
H       -0.436229786   2.459219691   1.246324573
H        9.383232574   9.410579923  13.501412113
H       14.410180306   5.426669564   2.440609896
H       -2.111879039   0.508230142   4.933258779
H       -3.787528529   2.459219647   8.620193409
H       12.734530968   9.410579967   6.127544046
H       11.058881929   5.426669548   9.814477771
H       -5.463177841   0.508230183  12.307127553
H       -0.436229732   8.394119546   1.246324491
H        9.383232520   3.475680068  13.501412195
H       14.410180280  11.361569431   2.440609903
H       -2.111879092   6.443130066   4.933258805
H       -3.787528520   8.394119474   8.620193316
H       12.734530959   3.475680140   6.127544139
H       11.058881876  11.361569472   9.814477797
H       -5.463177867   6.443130050  12.307127560
H        7.391554897   2.458426160   1.247554903
H        1.555447906   9.411373454  13.500181783
H        6.582395651   5.425876029   2.439379489
H        5.715905639   0.509023757   4.934489060
H        4.040256167   2.458426146   8.621423684
H        4.906746286   9.411373468   6.126313771
H        3.231097213   5.425876016   9.813247486
H        2.364606789   0.509023747  12.308357932
H        7.391554926   8.393325961   1.247554875
H        1.555447877   3.476473653  13.500181811
H        6.582395664  11.360775867   2.439379524
H        5.715905640   6.443923598   4.934489090
H        4.040256193   8.393325965   8.621423649
H        4.906746260   3.476473649   6.126313806
H        3.231097214  11.360775857   9.813247516
H        2.364606802   6.443923585  12.308357967
H        1.392908459   1.809165568   2.792217307
H        7.554093860  10.060633869  11.955519929
H       12.581041831   4.776615566   0.894717162
H       -0.282740778   1.158284232   6.479151385
H       -1.958390018   1.809165621  10.166085528
H       10.905392437  10.060633816   4.581651488
H        9.229743216   4.776615548   8.268585605
H       -3.634039378   1.158284252  13.853019531
H        1.392908475   7.744065506   2.792217152
H        7.554093844   4.125734108  11.955520084
H       12.581041897  10.711515539   0.894717265
H       -0.282740797   7.093184066   6.479151411
H       -1.958390004   7.744065625  10.166085363
H       10.905392423   4.125733989   4.581651653
H        9.229743197  10.711515559   8.268585631
H       -3.634039312   7.093184048  13.853019634
H        9.220095643   1.808609224   2.793086345
H       -0.273093090  10.061190213  11.954650891
H        4.753854831   4.776059277   0.893847967
H        7.544446456   1.158840559   6.480020423
H        5.868797300   1.808609411  10.166954595
H        3.078205353  10.061190026   4.580782421
H        1.402556149   4.776059260   8.267716542
H        4.193147827   1.158840555  13.853888726
H        9.220095676   7.743509139   2.793086282
H       -0.273093123   4.126290475  11.954650954
H        4.753854926  10.710959236   0.893848070
H        7.544446504   7.093740354   6.480020474
H        5.868797350   7.743509342  10.166954602
H        3.078205303   4.126290272   4.580782414
H        1.402556197  10.710959232   8.267716593
H        4.193147922   7.093740337  13.853888829
    &END COORD
    &KIND H
      BASIS_SET DZVP-GTH-PBE
      POTENTIAL GTH-PBE-q1
    &END KIND
    &KIND C
      BASIS_SET DZVP-GTH-PBE
      POTENTIAL GTH-PBE-q4
    &END KIND
  &END SUBSYS
  &DFT
    BASIS_SET_FILE_NAME /data/home/btx156/cp2k/BASIS_SET
    POTENTIAL_FILE_NAME /data/home/btx156/cp2k/POTENTIAL
    &QS
      EPS_DEFAULT 1.0E-7
    &END QS
    &MGRID
      CUTOFF 200
      NGRIDS 4
      REL_CUTOFF 30
    &END MGRID
      &SCF
      SCF_GUESS ATOMIC
      EPS_SCF 1.0E-05
      MAX_SCF 200
      &DIAGONALIZATION T
        ALGORITHM STANDARD
      &END DIAGONALIZATION
      &MIXING T
        ALPHA 0.5
        METHOD PULAY_MIXING
        NPULAY 5
      &END MIXING
      &PRINT
        &RESTART OFF
        &END RESTART
      &END PRINT
    &END SCF
     &XC
       DENSITY_CUTOFF     1.0000000000000000E-10
       GRADIENT_CUTOFF     1.0000000000000000E-10
       TAU_CUTOFF     1.0000000000000000E-10
       &XC_FUNCTIONAL  NO_SHORTCUT
         &PBE  T
         &END PBE
       &END XC_FUNCTIONAL
     &VDW_POTENTIAL
      DISPERSION_FUNCTIONAL PAIR_POTENTIAL
      &PAIR_POTENTIAL
      TYPE DFTD2
      REFERENCE_FUNCTIONAL PBE
     &END PAIR_POTENTIAL
     &END VDW_POTENTIAL
     &END XC
  &END DFT
&END FORCE_EVAL
&MOTION
  &GEO_OPT
    TYPE MINIMIZATION
     OPTIMIZER  BFGS
     MAX_ITER  600
     STEP_START_VAL  1
  &END GEO_OPT
  &CONSTRAINT
    &FIXED_ATOMS
      COMPONENTS_TO_FIX XYZ
      LIST 1
    &END FIXED_ATOMS
  &END CONSTRAINT
&END MOTION  
