&GLOBAL
  PROJECT naphthalene222
  RUN_TYPE GEO_OPT
  PRINT_LEVEL MEDIUM
&END GLOBAL
&FORCE_EVAL
  METHOD QS
  &SUBSYS
    &CELL
A 15.649600029	0.0	0.0 
B 0.0	11.869799614	0.0
C -6.7025973763	0.0	14.7477370159
    &END CELL
    &COORD
C 	7.198966731 	0.114157798 	12.931678157
C 	1.748035922 	11.755641728 	1.816058859
C 	0.072386578 	3.08160779 	5.502993113
C 	12.225914763 	2.853292017 	1.870875395
C 	10.550265419 	0.114157798 	5.557809649
C 	-1.603262766 	11.755641728 	9.189927366
C 	-3.27891211 	3.08160779 	12.87686162
C 	8.874616075 	2.853292017 	9.244743903
C 	7.198966731 	6.049057693 	12.931678157
C 	1.748035922 	5.820741921 	1.816058859
C 	0.072386578 	9.016507597 	5.502993113
C 	12.225914763 	8.788191824 	1.870875395
C 	10.550265419 	6.049057693 	5.557809649
C 	-1.603262766 	5.820741921 	9.189927366
C 	-3.27891211 	9.016507597 	12.87686162
C 	8.874616075 	8.788191824 	9.244743903
C 	-0.625833284 	0.114157798 	12.931678157
C 	9.572835937 	11.755641728 	1.816058859
C 	7.897186593 	3.08160779 	5.502993113
C 	4.401114748 	2.853292017 	1.870875395
C 	2.725465404 	0.114157798 	5.557809649
C 	6.221537249 	11.755641728 	9.189927366
C 	4.545887904 	3.08160779 	12.87686162
C 	1.04981606 	2.853292017 	9.244743903
C 	-0.625833284 	6.049057693 	12.931678157
C 	9.572835937 	5.820741921 	1.816058859
C 	7.897186593 	9.016507597 	5.502993113
C 	4.401114748 	8.788191824 	1.870875395
C 	2.725465404 	6.049057693 	5.557809649
C 	6.221537249 	5.820741921 	9.189927366
C 	4.545887904 	9.016507597 	12.87686162
C 	1.04981606 	8.788191824 	9.244743903
C 	7.571489291 	0.970741857 	13.938558434
C 	1.375513362 	10.899057492 	0.809178582
C 	-0.300135982 	3.938191672 	4.496112836
C 	12.598437323 	1.996708135 	2.877755672
C 	10.922787979 	0.970741857 	6.564689926
C 	-1.975785326 	10.899057492 	8.18304709
C 	-3.65143467 	3.938191672 	11.869981344
C 	9.247138635 	1.996708135 	10.25162418
C 	7.571489291 	6.905641929 	13.938558434
C 	1.375513362 	4.964158039 	0.809178582
C 	-0.300135982 	9.873091833 	4.496112836
C 	12.598437323 	7.931607588 	2.877755672
C 	10.922787979 	6.905641929 	6.564689926
C 	-1.975785326 	4.964158039 	8.18304709
C 	-3.65143467 	9.873091833 	11.869981344
C 	9.247138635 	7.931607588 	10.25162418
C 	-0.253310724 	0.970741857 	13.938558434
C 	9.200313376 	10.899057492 	0.809178582
C 	7.524664032 	3.938191672 	4.496112836
C 	4.773637309 	1.996708135 	2.877755672
C 	3.097987964 	0.970741857 	6.564689926
C 	5.849014688 	10.899057492 	8.18304709
C 	4.173365344 	3.938191672 	11.869981344
C 	1.42233862 	1.996708135 	10.25162418
C 	-0.253310724 	6.905641929 	13.938558434
C 	9.200313376 	4.964158039 	0.809178582
C 	7.524664032 	9.873091833 	4.496112836
C 	4.773637309 	7.931607588 	2.877755672
C 	3.097987964 	6.905641929 	6.564689926
C 	5.849014688 	4.964158039 	8.18304709
C 	4.173365344 	9.873091833 	11.869981344
C 	1.42233862 	7.931607588 	10.25162418
C 	15.321491527 	0.62545533 	0.079763134
C 	-6.374488703 	11.244344152 	14.667973505
C 	-1.34754087 	3.592905366 	3.607171182
C 	13.645842211 	2.341994618 	3.766697326
C 	11.970192667 	0.62545533 	7.453632019
C 	-3.023190214 	11.244344152 	7.294105436
C 	-4.698839359 	3.592905366 	10.981039251
C 	10.294543323 	2.341994618 	11.140566273
C 	15.321491527 	6.560355269 	0.079763134
C 	-6.374488703 	5.309444345 	14.667973505
C 	-1.34754087 	9.527805173 	3.607171182
C 	13.645842211 	8.276894248 	3.766697326
C 	11.970192667 	6.560355269 	7.453632019
C 	-3.023190214 	5.309444345 	7.294105436
C 	-4.698839359 	9.527805173 	10.981039251
C 	10.294543323 	8.276894248 	11.140566273
C 	7.496691512 	0.62545533 	0.079763134
C 	1.450311312 	11.244344152 	14.667973505
C 	6.477259144 	3.592905366 	3.607171182
C 	5.821042196 	2.341994618 	3.766697326
C 	4.145392653 	0.62545533 	7.453632019
C 	4.8016098 	11.244344152 	7.294105436
C 	3.125960656 	3.592905366 	10.981039251
C 	2.469743309 	2.341994618 	11.140566273
C 	7.496691512 	6.560355269 	0.079763134
C 	1.450311312 	5.309444345 	14.667973505
C 	6.477259144 	9.527805173 	3.607171182
C 	5.821042196 	8.276894248 	3.766697326
C 	4.145392653 	6.560355269 	7.453632019
C 	4.8016098 	5.309444345 	7.294105436
C 	3.125960656 	9.527805173 	10.981039251
C 	2.469743309 	8.276894248 	11.140566273
C 	0.079838487 	1.494051728 	1.122487153
C 	8.867164274 	10.375748062 	13.625249753
C 	13.894112306 	4.461501455 	2.564446991
C 	-1.595810907 	1.473398175 	4.809421517
C 	-3.271460251 	1.494051728 	8.496355771
C 	12.218462962 	10.375748062 	6.251381245
C 	10.542813618 	4.461501455 	9.938315499
C 	-4.947109595 	1.473398175 	12.183290025
C 	0.079838487 	7.428951359 	1.122487153
C 	8.867164274 	4.440848255 	13.625249753
C 	13.894112306 	10.396401262 	2.564446991
C 	-1.595810907 	7.408298159 	4.809421517
C 	-3.271460251 	7.428951359 	8.496355771
C 	12.218462962 	4.440848255 	6.251381245
C 	10.542813618 	10.396401262 	9.938315499
C 	-4.947109595 	7.408298159 	12.183290025
C 	7.904638444 	1.494051728 	1.122487153
C 	1.042364259 	10.375748062 	13.625249753
C 	6.069312291 	4.461501455 	2.564446991
C 	6.22898905 	1.473398175 	4.809421517
C 	4.553339706 	1.494051728 	8.496355771
C 	4.393662947 	10.375748062 	6.251381245
C 	2.718013603 	4.461501455 	9.938315499
C 	2.877690361 	1.473398175 	12.183290025
C 	7.904638444 	7.428951359 	1.122487153
C 	1.042364259 	4.440848255 	13.625249753
C 	6.069312291 	10.396401262 	2.564446991
C 	6.22898905 	7.408298159 	4.809421517
C 	4.553339706 	7.428951359 	8.496355771
C 	4.393662947 	4.440848255 	6.251381245
C 	2.718013603 	10.396401262 	9.938315499
C 	2.877690361 	7.408298159 	12.183290025
C 	1.092944977 	1.131227501 	1.976122971
C 	7.854057909 	10.738572113 	12.771614045
C 	12.881005941 	4.098677404 	1.710811283
C 	-0.582704367 	1.836222403 	5.663057225
C 	-2.258353711 	1.131227501 	9.349991478
C 	11.205356597 	10.738572113 	5.397745537
C 	9.529707253 	4.098677404 	9.084679791
C 	-3.934003056 	1.836222403 	13.036925732
C 	1.092944977 	7.066127308 	1.976122971
C 	7.854057909 	4.803672306 	12.771614045
C 	12.881005941 	10.033577211 	1.710811283
C 	-0.582704367 	7.771122209 	5.663057225
C 	-2.258353711 	7.066127308 	9.349991478
C 	11.205356597 	4.803672306 	5.397745537
C 	9.529707253 	10.033577211 	9.084679791
C 	-3.934003056 	7.771122209 	13.036925732
C 	8.917744758 	1.131227501 	1.976122971
C 	0.029257895 	10.738572113 	12.771614045
C 	5.056205927 	4.098677404 	1.710811283
C 	7.242095414 	1.836222403 	5.663057225
C 	5.56644607 	1.131227501 	9.349991478
C 	3.380556583 	10.738572113 	5.397745537
C 	1.704907239 	4.098677404 	9.084679791
C 	3.890796726 	1.836222403 	13.036925732
C 	8.917744758 	7.066127308 	1.976122971
C 	0.029257895 	4.803672306 	12.771614045
C 	5.056205927 	10.033577211 	1.710811283
C 	7.242095414 	7.771122209 	5.663057225
C 	5.56644607 	7.066127308 	9.349991478
C 	3.380556583 	4.803672306 	5.397745537
C 	1.704907239 	10.033577211 	9.084679791
C 	3.890796726 	7.771122209 	13.036925732
H 	6.402745037 	0.400487026 	12.255295185
H 	2.544257616 	11.469312764 	2.492441831
H 	0.868608272 	3.367936753 	6.179376084
H 	11.429693069 	2.566962877 	1.194492423
H 	9.754043725 	0.400487026 	4.881426677
H 	-0.807041072 	11.469312764 	9.866310338
H 	-2.482690416 	3.367936753 	13.553244592
H 	8.078394381 	2.566962877 	8.568360931
H 	6.402745037 	6.335386656 	12.255295185
H 	2.544257616 	5.534412957 	2.492441831
H 	0.868608272 	9.30283656 	6.179376084
H 	11.429693069 	8.501862861 	1.194492423
H 	9.754043725 	6.335386656 	4.881426677
H 	-0.807041072 	5.534412957 	9.866310338
H 	-2.482690416 	9.30283656 	13.553244592
H 	8.078394381 	8.501862861 	8.568360931
H 	-1.422054978 	0.400487026 	12.255295185
H 	10.369057631 	11.469312764 	2.492441831
H 	8.693408287 	3.367936753 	6.179376084
H 	3.604893054 	2.566962877 	1.194492423
H 	1.92924371 	0.400487026 	4.881426677
H 	7.017758942 	11.469312764 	9.866310338
H 	5.342109598 	3.367936753 	13.553244592
H 	0.253594366 	2.566962877 	8.568360931
H 	-1.422054978 	6.335386656 	12.255295185
H 	10.369057631 	5.534412957 	2.492441831
H 	8.693408287 	9.30283656 	6.179376084
H 	3.604893054 	8.501862861 	1.194492423
H 	1.92924371 	6.335386656 	4.881426677
H 	7.017758942 	5.534412957 	9.866310338
H 	5.342109598 	9.30283656 	13.553244592
H 	0.253594366 	8.501862861 	8.568360931
H 	7.084118197 	1.929435955 	14.067571562
H 	1.862884456 	9.940364013 	0.680165454
H 	0.187235112 	4.896885858 	4.367099708
H 	12.111066229 	1.038013949 	3.0067688
H 	10.435416885 	1.929435955 	6.693703054
H 	-1.488414232 	9.940364013 	8.054033962
H 	-3.164063576 	4.896885858 	11.740968216
H 	8.759767541 	1.038013949 	10.380637308
H 	7.084118197 	7.864335408 	14.067571562
H 	1.862884456 	4.005463852 	0.680165454
H 	0.187235112 	10.831785312 	4.367099708
H 	12.111066229 	6.972914109 	3.0067688
H 	10.435416885 	7.864335408 	6.693703054
H 	-1.488414232 	4.005463852 	8.054033962
H 	-3.164063576 	10.831785312 	11.740968216
H 	8.759767541 	6.972914109 	10.380637308
H 	-0.740681818 	1.929435955 	14.067571562
H 	9.687684471 	9.940364013 	0.680165454
H 	8.012035127 	4.896885858 	4.367099708
H 	4.286266214 	1.038013949 	3.0067688
H 	2.61061687 	1.929435955 	6.693703054
H 	6.336385783 	9.940364013 	8.054033962
H 	4.660736438 	4.896885858 	11.740968216
H 	0.934967526 	1.038013949 	10.380637308
H 	-0.740681818 	7.864335408 	14.067571562
H 	9.687684471 	4.005463852 	0.680165454
H 	8.012035127 	10.831785312 	4.367099708
H 	4.286266214 	6.972914109 	3.0067688
H 	2.61061687 	7.864335408 	6.693703054
H 	6.336385783 	4.005463852 	8.054033962
H 	4.660736438 	10.831785312 	11.740968216
H 	0.934967526 	6.972914109 	10.380637308
H 	-0.430590267 	2.442804723 	1.234606793
H 	9.377593055 	9.426994891 	13.513129893
H 	14.404540888 	5.410254627 	2.452327571
H 	-2.106239562 	0.52464518 	4.921540937
H 	-3.781889105 	2.442804723 	8.608475631
H 	12.728891544 	9.426994891 	6.139261824
H 	11.053242399 	5.410254627 	9.826195639
H 	-5.457538449 	0.52464518 	12.295409885
H 	-0.430590267 	8.37770453 	1.234606793
H 	9.377593055 	3.492095084 	13.513129893
H 	14.404540888 	11.345154434 	2.452327571
H 	-2.106239562 	6.459544987 	4.921540937
H 	-3.781889105 	8.37770453 	8.608475631
H 	12.728891544 	3.492095084 	6.139261824
H 	11.053242399 	11.345154434 	9.826195639
H 	-5.457538449 	6.459544987 	12.295409885
H 	7.394209762 	2.442804723 	1.234606793
H 	1.552793041 	9.426994891 	13.513129893
H 	6.579740873 	5.410254627 	2.452327571
H 	5.718560468 	0.52464518 	4.921540937
H 	4.042910924 	2.442804723 	8.608475631
H 	4.904091529 	9.426994891 	6.139261824
H 	3.228442385 	5.410254627 	9.826195639
H 	2.36726158 	0.52464518 	12.295409885
H 	7.394209762 	8.37770453 	1.234606793
H 	1.552793041 	3.492095084 	13.513129893
H 	6.579740873 	11.345154434 	2.452327571
H 	5.718560468 	6.459544987 	4.921540937
H 	4.042910924 	8.37770453 	8.608475631
H 	4.904091529 	3.492095084 	6.139261824
H 	3.228442385 	11.345154434 	9.826195639
H 	2.36726158 	6.459544987 	12.295409885
H 	1.381754624 	1.804743642 	2.774049263
H 	7.565247695 	10.065055795 	11.973687973
H 	12.592195827 	4.772193723 	0.912884991
H 	-0.29389462 	1.162706261 	6.460983297
H 	-1.969543964 	1.804743642 	10.147917551
H 	10.916546383 	10.065055795 	4.599819465
H 	9.240897039 	4.772193723 	8.286753719
H 	-3.645193308 	1.162706261 	13.834851805
H 	1.381754624 	7.739643626 	2.774049263
H 	7.565247695 	4.130155988 	11.973687973
H 	12.592195827 	10.70709353 	0.912884991
H 	-0.29389462 	7.097605891 	6.460983297
H 	-1.969543964 	7.739643626 	10.147917551
H 	10.916546383 	4.130155988 	4.599819465
H 	9.240897039 	10.70709353 	8.286753719
H 	-3.645193308 	7.097605891 	13.834851805
H 	9.206554872 	1.804743642 	2.774049263
H 	-0.259552319 	10.065055795 	11.973687973
H 	4.767395813 	4.772193723 	0.912884991
H 	7.530905628 	1.162706261 	6.460983297
H 	5.855256284 	1.804743642 	10.147917551
H 	3.091746369 	10.065055795 	4.599819465
H 	1.416097025 	4.772193723 	8.286753719
H 	4.17960694 	1.162706261 	13.834851805
H 	9.206554872 	7.739643626 	2.774049263
H 	-0.259552319 	4.130155988 	11.973687973
H 	4.767395813 	10.70709353 	0.912884991
H 	7.530905628 	7.097605891 	6.460983297
H 	5.855256284 	7.739643626 	10.147917551
H 	3.091746369 	4.130155988 	4.599819465
H 	1.416097025 	10.70709353 	8.286753719
H 	4.17960694 	7.097605891 	13.834851805
    &END COORD
    &KIND H
      BASIS_SET DZVP-GTH-PBE
      POTENTIAL GTH-PBE-q1
    &END KIND
    &KIND C
      BASIS_SET DZVP-GTH-PBE
      POTENTIAL GTH-PBE-q4
    &END KIND
  &END SUBSYS
  &DFT
    BASIS_SET_FILE_NAME /data/home/btx156/cp2k/BASIS_SET
    POTENTIAL_FILE_NAME /data/home/btx156/cp2k/POTENTIAL
    &QS
      EPS_DEFAULT 1.0E-7
    &END QS
    &MGRID
      CUTOFF 200
      NGRIDS 4
      REL_CUTOFF 30
    &END MGRID
      &SCF
      SCF_GUESS ATOMIC
      EPS_SCF 1.0E-05
      MAX_SCF 200
      &DIAGONALIZATION T
        ALGORITHM STANDARD
      &END DIAGONALIZATION
      &MIXING T
        ALPHA 0.5
        METHOD PULAY_MIXING
        NPULAY 5
      &END MIXING
      &PRINT
        &RESTART OFF
        &END RESTART
      &END PRINT
    &END SCF
     &XC
       DENSITY_CUTOFF     1.0000000000000000E-10
       GRADIENT_CUTOFF     1.0000000000000000E-10
       TAU_CUTOFF     1.0000000000000000E-10
       &XC_FUNCTIONAL  NO_SHORTCUT
         &PBE  T
         &END PBE
       &END XC_FUNCTIONAL
     &VDW_POTENTIAL
      DISPERSION_FUNCTIONAL PAIR_POTENTIAL
      &PAIR_POTENTIAL
      TYPE DFTD2
      REFERENCE_FUNCTIONAL PBE
     &END PAIR_POTENTIAL
     &END VDW_POTENTIAL
     &END XC
  &END DFT
&END FORCE_EVAL
&MOTION
  &GEO_OPT
    TYPE MINIMIZATION
     OPTIMIZER  BFGS
     MAX_ITER  600
     STEP_START_VAL  1
  &END GEO_OPT
  &CONSTRAINT
    &FIXED_ATOMS
      COMPONENTS_TO_FIX XYZ
      LIST 1
    &END FIXED_ATOMS
  &END CONSTRAINT
&END MOTION  
