&GLOBAL
  PROJECT naphthalene222
  RUN_TYPE GEO_OPT
  PRINT_LEVEL MEDIUM
&END GLOBAL
&FORCE_EVAL
  METHOD QS
  &SUBSYS
    &CELL
A 15.649600029	0.0	0.0 
B 0.0	11.869799614	0.0
C -6.7025973763	0.0	14.7477370159
    &END CELL
    &COORD
     C   7.198967   0.114158  12.931678
     C   1.748036  11.755642   1.816059
     C   0.072387   3.081608   5.502993
     C  12.225915   2.853292   1.870875
     C  10.550265   0.114158   5.557810
     C  -1.603263  11.755642   9.189927
     C  -3.278912   3.081608  12.876862
     C   8.874616   2.853292   9.244744
     C   7.198967   6.049058  12.931678
     C   1.748036   5.820742   1.816059
     C   0.072387   9.016508   5.502993
     C  12.225915   8.788192   1.870875
     C  10.550265   6.049058   5.557810
     C  -1.603263   5.820742   9.189927
     C  -3.278912   9.016508  12.876862
     C   8.874616   8.788192   9.244744
     C  -0.625833   0.114158  12.931678
     C   9.572836  11.755642   1.816059
     C   7.897187   3.081608   5.502993
     C   4.401115   2.853292   1.870875
     C   2.725465   0.114158   5.557810
     C   6.221537  11.755642   9.189927
     C   4.545888   3.081608  12.876862
     C   1.049816   2.853292   9.244744
     C  -0.625833   6.049058  12.931678
     C   9.572836   5.820742   1.816059
     C   7.897187   9.016508   5.502993
     C   4.401115   8.788192   1.870875
     C   2.725465   6.049058   5.557810
     C   6.221537   5.820742   9.189927
     C   4.545888   9.016508  12.876862
     C   1.049816   8.788192   9.244744
     C   7.571489   0.970742  13.938558
     C   1.375513  10.899057   0.809179
     C  -0.300136   3.938192   4.496113
     C  12.598437   1.996708   2.877756
     C  10.922788   0.970742   6.564690
     C  -1.975785  10.899057   8.183047
     C  -3.651435   3.938192  11.869981
     C   9.247139   1.996708  10.251624
     C   7.571489   6.905642  13.938558
     C   1.375513   4.964158   0.809179
     C  -0.300136   9.873092   4.496113
     C  12.598437   7.931608   2.877756
     C  10.922788   6.905642   6.564690
     C  -1.975785   4.964158   8.183047
     C  -3.651435   9.873092  11.869981
     C   9.247139   7.931608  10.251624
     C  -0.253311   0.970742  13.938558
     C   9.200313  10.899057   0.809179
     C   7.524664   3.938192   4.496113
     C   4.773637   1.996708   2.877756
     C   3.097988   0.970742   6.564690
     C   5.849015  10.899057   8.183047
     C   4.173365   3.938192  11.869981
     C   1.422339   1.996708  10.251624
     C  -0.253311   6.905642  13.938558
     C   9.200313   4.964158   0.809179
     C   7.524664   9.873092   4.496113
     C   4.773637   7.931608   2.877756
     C   3.097988   6.905642   6.564690
     C   5.849015   4.964158   8.183047
     C   4.173365   9.873092  11.869981
     C   1.422339   7.931608  10.251624
     C  15.321492   0.625455   0.079763
     C  -6.374489  11.244344  14.667974
     C  -1.347541   3.592905   3.607171
     C  13.645842   2.341995   3.766697
     C  11.970193   0.625455   7.453632
     C  -3.023190  11.244344   7.294105
     C  -4.698839   3.592905  10.981039
     C  10.294543   2.341995  11.140566
     C  15.321492   6.560355   0.079763
     C  -6.374489   5.309444  14.667974
     C  -1.347541   9.527805   3.607171
     C  13.645842   8.276894   3.766697
     C  11.970193   6.560355   7.453632
     C  -3.023190   5.309444   7.294105
     C  -4.698839   9.527805  10.981039
     C  10.294543   8.276894  11.140566
     C   7.496692   0.625455   0.079763
     C   1.450311  11.244344  14.667974
     C   6.477259   3.592905   3.607171
     C   5.821042   2.341995   3.766697
     C   4.145393   0.625455   7.453632
     C   4.801610  11.244344   7.294105
     C   3.125961   3.592905  10.981039
     C   2.469743   2.341995  11.140566
     C   7.496692   6.560355   0.079763
     C   1.450311   5.309444  14.667974
     C   6.477259   9.527805   3.607171
     C   5.821042   8.276894   3.766697
     C   4.145393   6.560355   7.453632
     C   4.801610   5.309444   7.294105
     C   3.125961   9.527805  10.981039
     C   2.469743   8.276894  11.140566
     C   0.079838   1.494052   1.122487
     C   8.867164  10.375748  13.625250
     C  13.894112   4.461501   2.564447
     C  -1.595811   1.473398   4.809422
     C  -3.271460   1.494052   8.496356
     C  12.218463  10.375748   6.251381
     C  10.542814   4.461501   9.938315
     C  -4.947110   1.473398  12.183290
     C   0.079838   7.428951   1.122487
     C   8.867164   4.440848  13.625250
     C  13.894112  10.396401   2.564447
     C  -1.595811   7.408298   4.809422
     C  -3.271460   7.428951   8.496356
     C  12.218463   4.440848   6.251381
     C  10.542814  10.396401   9.938315
     C  -4.947110   7.408298  12.183290
     C   7.904638   1.494052   1.122487
     C   1.042364  10.375748  13.625250
     C   6.069312   4.461501   2.564447
     C   6.228989   1.473398   4.809422
     C   4.553340   1.494052   8.496356
     C   4.393663  10.375748   6.251381
     C   2.718014   4.461501   9.938315
     C   2.877690   1.473398  12.183290
     C   7.904638   7.428951   1.122487
     C   1.042364   4.440848  13.625250
     C   6.069312  10.396401   2.564447
     C   6.228989   7.408298   4.809422
     C   4.553340   7.428951   8.496356
     C   4.393663   4.440848   6.251381
     C   2.718014  10.396401   9.938315
     C   2.877690   7.408298  12.183290
     C   1.092945   1.131228   1.976123
     C   7.854058  10.738572  12.771614
     C  12.881006   4.098677   1.710811
     C  -0.582704   1.836222   5.663057
     C  -2.258354   1.131228   9.349991
     C  11.205357  10.738572   5.397746
     C   9.529707   4.098677   9.084680
     C  -3.934003   1.836222  13.036926
     C   1.092945   7.066127   1.976123
     C   7.854058   4.803672  12.771614
     C  12.881006  10.033577   1.710811
     C  -0.582704   7.771122   5.663057
     C  -2.258354   7.066127   9.349991
     C  11.205357   4.803672   5.397746
     C   9.529707  10.033577   9.084680
     C  -3.934003   7.771122  13.036926
     C   8.917745   1.131228   1.976123
     C   0.029258  10.738572  12.771614
     C   5.056206   4.098677   1.710811
     C   7.242095   1.836222   5.663057
     C   5.566446   1.131228   9.349991
     C   3.380557  10.738572   5.397746
     C   1.704907   4.098677   9.084680
     C   3.890797   1.836222  13.036926
     C   8.917745   7.066127   1.976123
     C   0.029258   4.803672  12.771614
     C   5.056206  10.033577   1.710811
     C   7.242095   7.771122   5.663057
     C   5.566446   7.066127   9.349991
     C   3.380557   4.803672   5.397746
     C   1.704907  10.033577   9.084680
     C   3.890797   7.771122  13.036926
     H   6.402745   0.400487  12.255295
     H   2.544258  11.469313   2.492442
     H   0.868608   3.367937   6.179376
     H  11.429693   2.566963   1.194492
     H   9.754044   0.400487   4.881427
     H  -0.807041  11.469313   9.866310
     H  -2.482690   3.367937  13.553245
     H   8.078394   2.566963   8.568361
     H   6.402745   6.335387  12.255295
     H   2.544258   5.534413   2.492442
     H   0.868608   9.302837   6.179376
     H  11.429693   8.501863   1.194492
     H   9.754044   6.335387   4.881427
     H  -0.807041   5.534413   9.866310
     H  -2.482690   9.302837  13.553245
     H   8.078394   8.501863   8.568361
     H  -1.422055   0.400487  12.255295
     H  10.369058  11.469313   2.492442
     H   8.693408   3.367937   6.179376
     H   3.604893   2.566963   1.194492
     H   1.929244   0.400487   4.881427
     H   7.017759  11.469313   9.866310
     H   5.342110   3.367937  13.553245
     H   0.253594   2.566963   8.568361
     H  -1.422055   6.335387  12.255295
     H  10.369058   5.534413   2.492442
     H   8.693408   9.302837   6.179376
     H   3.604893   8.501863   1.194492
     H   1.929244   6.335387   4.881427
     H   7.017759   5.534413   9.866310
     H   5.342110   9.302837  13.553245
     H   0.253594   8.501863   8.568361
     H   7.084118   1.929436  14.067572
     H   1.862884   9.940364   0.680165
     H   0.187235   4.896886   4.367100
     H  12.111066   1.038014   3.006769
     H  10.435417   1.929436   6.693703
     H  -1.488414   9.940364   8.054034
     H  -3.164064   4.896886  11.740968
     H   8.759768   1.038014  10.380637
     H   7.084118   7.864335  14.067572
     H   1.862884   4.005464   0.680165
     H   0.187235  10.831785   4.367100
     H  12.111066   6.972914   3.006769
     H  10.435417   7.864335   6.693703
     H  -1.488414   4.005464   8.054034
     H  -3.164064  10.831785  11.740968
     H   8.759768   6.972914  10.380637
     H  -0.740682   1.929436  14.067572
     H   9.687684   9.940364   0.680165
     H   8.012035   4.896886   4.367100
     H   4.286266   1.038014   3.006769
     H   2.610617   1.929436   6.693703
     H   6.336386   9.940364   8.054034
     H   4.660736   4.896886  11.740968
     H   0.934968   1.038014  10.380637
     H  -0.740682   7.864335  14.067572
     H   9.687684   4.005464   0.680165
     H   8.012035  10.831785   4.367100
     H   4.286266   6.972914   3.006769
     H   2.610617   7.864335   6.693703
     H   6.336386   4.005464   8.054034
     H   4.660736  10.831785  11.740968
     H   0.934968   6.972914  10.380637
     H  -0.430590   2.442805   1.234607
     H   9.377593   9.426995  13.513130
     H  14.404541   5.410255   2.452328
     H  -2.106240   0.524645   4.921541
     H  -3.781889   2.442805   8.608476
     H  12.728892   9.426995   6.139262
     H  11.053242   5.410255   9.826196
     H  -5.457538   0.524645  12.295410
     H  -0.430590   8.377705   1.234607
     H   9.377593   3.492095  13.513130
     H  14.404541  11.345154   2.452328
     H  -2.106240   6.459545   4.921541
     H  -3.781889   8.377705   8.608476
     H  12.728892   3.492095   6.139262
     H  11.053242  11.345154   9.826196
     H  -5.457538   6.459545  12.295410
     H   7.394210   2.442805   1.234607
     H   1.552793   9.426995  13.513130
     H   6.579741   5.410255   2.452328
     H   5.718560   0.524645   4.921541
     H   4.042911   2.442805   8.608476
     H   4.904092   9.426995   6.139262
     H   3.228442   5.410255   9.826196
     H   2.367262   0.524645  12.295410
     H   7.394210   8.377705   1.234607
     H   1.552793   3.492095  13.513130
     H   6.579741  11.345154   2.452328
     H   5.718560   6.459545   4.921541
     H   4.042911   8.377705   8.608476
     H   4.904092   3.492095   6.139262
     H   3.228442  11.345154   9.826196
     H   2.367262   6.459545  12.295410
     H   1.381755   1.804744   2.774049
     H   7.565248  10.065056  11.973688
     H  12.592196   4.772194   0.912885
     H  -0.293895   1.162706   6.460983
     H  -1.969544   1.804744  10.147918
     H  10.916546  10.065056   4.599819
     H   9.240897   4.772194   8.286754
     H  -3.645193   1.162706  13.834852
     H   1.381755   7.739644   2.774049
     H   7.565248   4.130156  11.973688
     H  12.592196  10.707094   0.912885
     H  -0.293895   7.097606   6.460983
     H  -1.969544   7.739644  10.147918
     H  10.916546   4.130156   4.599819
     H   9.240897  10.707094   8.286754
     H  -3.645193   7.097606  13.834852
     H   9.206555   1.804744   2.774049
     H  -0.259552  10.065056  11.973688
     H   4.767396   4.772194   0.912885
     H   7.530906   1.162706   6.460983
     H   5.855256   1.804744  10.147918
     H   3.091746  10.065056   4.599819
     H   1.416097   4.772194   8.286754
     H   4.179607   1.162706  13.834852
     H   9.206555   7.739644   2.774049
     H  -0.259552   4.130156  11.973688
     H   4.767396  10.707094   0.912885
     H   7.530906   7.097606   6.460983
     H   5.855256   7.739644  10.147918
     H   3.091746   4.130156   4.599819
     H   1.416097  10.707094   8.286754
     H   4.179607   7.097606  13.834852
    &END COORD
    &KIND H
      BASIS_SET DZVP-GTH-PBE
      POTENTIAL GTH-PBE-q1
    &END KIND
    &KIND C
      BASIS_SET DZVP-GTH-PBE
      POTENTIAL GTH-PBE-q4
    &END KIND
  &END SUBSYS
  &DFT
    BASIS_SET_FILE_NAME /data/home/btx156/cp2k/BASIS_SET
    POTENTIAL_FILE_NAME /data/home/btx156/cp2k/POTENTIAL
    &QS
      EPS_DEFAULT 1.0E-7
    &END QS
    &MGRID
      CUTOFF 200
      NGRIDS 4
      REL_CUTOFF 30
    &END MGRID
      &SCF
      SCF_GUESS ATOMIC
      EPS_SCF 1.0E-05
      MAX_SCF 200
      &DIAGONALIZATION T
        ALGORITHM STANDARD
      &END DIAGONALIZATION
      &MIXING T
        ALPHA 0.5
        METHOD PULAY_MIXING
        NPULAY 5
      &END MIXING
      &PRINT
        &RESTART OFF
        &END RESTART
      &END PRINT
    &END SCF
     &XC
       DENSITY_CUTOFF     1.0000000000000000E-10
       GRADIENT_CUTOFF     1.0000000000000000E-10
       TAU_CUTOFF     1.0000000000000000E-10
       &XC_FUNCTIONAL  NO_SHORTCUT
         &PBE  T
         &END PBE
       &END XC_FUNCTIONAL
     &VDW_POTENTIAL
      DISPERSION_FUNCTIONAL PAIR_POTENTIAL
      &PAIR_POTENTIAL
      TYPE DFTD2
      REFERENCE_FUNCTIONAL PBE
     &END PAIR_POTENTIAL
     &END VDW_POTENTIAL
     &END XC
  &END DFT
&END FORCE_EVAL
&MOTION
  &GEO_OPT
    TYPE MINIMIZATION
     OPTIMIZER  BFGS
     MAX_ITER  600
     STEP_START_VAL  1
  &END GEO_OPT
  &CONSTRAINT
    &FIXED_ATOMS
      COMPONENTS_TO_FIX XYZ
      LIST 1
    &END FIXED_ATOMS
  &END CONSTRAINT
&END MOTION  
