%chk=mh.chk
%mem=56GB
%nproc=8
#wb97xd 6-311++g** td(nstates=1,root=1) charge force symmetry=none

mh

0 1
XXX__POS__XXX

  1.397020   0.111006  -0.819642  -0.377447
  2.517088   0.285034  -1.705922   0.371435
  0.214142   0.777890  -1.007752   0.050639
  1.503016  -0.576352   0.017202   0.145021
  3.808876  -0.377730  -1.438126  -0.195648
  2.419632   1.024996  -2.751970  -0.390946
 -0.986556   0.651464  -0.242525   0.099468
  0.171273   1.472914  -1.853314   0.037613
  4.045903  -1.200153  -0.316296  -0.155549
 -1.160550  -0.283514   0.808113  -0.075823
  6.142152  -0.756973  -2.099399  -0.324230
  5.281639  -1.785028  -0.085236  -0.132069
  3.245493  -1.397211   0.395094   0.132027
 -0.336053  -0.936842   1.096227   0.116511
  6.334781  -1.553487  -0.980365   0.003009
  6.950152  -0.549903  -2.801071   0.163194
  5.430460  -2.422904   0.785524   0.121909
  7.312416  -1.999445  -0.790597   0.083224
 -8.311124  -0.377727  -1.438122  -0.195648
 -8.240111  -3.943948  -2.827118  -0.129575
 -9.865050  -3.149648  -1.109162   0.202221
 -8.540856  -2.888974  -2.915756   0.047754
 -8.713865  -1.338603   3.522706  -0.330924
 -8.874511  -1.397207   0.395099   0.132027
 -9.602909   0.285038  -1.705925   0.371435
 -9.190727   3.143055  -0.518099   0.085790
 -8.379474   0.909873  -3.373563   0.323351
 -9.700368   1.024993  -2.751973  -0.390946
 -8.828464   4.592592   1.492375   0.164922
 -4.423931  -5.453045  -6.845570  -0.132123
 -3.188200  -6.037922  -6.614501  -0.155454
 -0.539311  -7.349085  -6.111155  -0.377281
 -6.454717  -5.238634  -6.140198   0.083237
 -2.387787  -5.840862  -7.325899   0.132003
 -0.645314  -6.661718  -6.948004   0.144981
 -4.031575  -7.063543  -4.582034   0.409963
 -5.284443  -6.481103  -4.831407  -0.324239
 -7.159941  -6.927523  -1.223470  -0.118667
 -5.924210  -6.342657  -0.992402  -0.164091
 -2.951174  -6.860342  -5.492679  -0.195711
 -1.659389  -7.523107  -5.224876   0.371313
  0.214137  -9.507115  -1.007750   0.050639
 -0.986554  -9.633538  -0.242526   0.099468
 -0.717758  -5.426016  -2.116810  -0.071260
 -2.105004  -8.829261  -0.568597   0.041261
 -6.092449  -6.688171  -4.129736   0.163220
 -5.123797  -6.539707  -1.703800   0.133471
 -3.381324  -5.718851  -1.325905   0.146087
  0.171278  -8.812085  -1.853314   0.037613
 -1.542247  -6.079340  -2.404932   0.118276
 -4.133264  -8.292148  -0.199528   0.203462
 -2.007618  -8.111749  -1.384633   0.081518
 -2.882824  -8.147952  -3.557237   0.323415
 -3.874177  -7.817299  -3.476302  -0.502420
 -1.561930  -8.263072  -4.178828  -0.390853
 -6.767585  -5.317036   1.040066   0.419315
 -8.020453  -5.899476   0.790692  -0.330896
 -5.687184  -5.520227   0.129421  -0.202622
 -3.627764  -7.889541   4.555925   0.099589
 -3.453768  -6.954563   3.505289  -0.075827
 -2.261556  -6.831678   2.829738  -0.383063
 -3.305083  -8.929087   0.101029  -0.477310
 -2.509314  -8.693808   4.881995   0.041191
 -6.117334  -6.661718   4.296195   0.144981
 -4.278257  -6.301229   3.217168   0.116518
 -2.185863  -6.094325   2.034818   0.191127
 -0.523953  -6.771418   0.593244  -0.017740
 -5.457440  -8.031474   1.607055   0.049809
 -1.143601  -7.656586   3.155752   0.459073
 -1.309223  -8.593992   4.212369  -0.477317
  0.175624  -6.570171   1.418096  -0.063776
  0.193263  -5.238634   5.104001   0.083237
 -0.481054  -9.230931   4.512927   0.203484
  0.030294  -7.552193   2.481280  -0.088440
 -3.259963  -5.609161   6.215343  -0.011723
 -2.560386  -5.810408   7.040195  -0.089385
 -1.540711  -5.770255   6.646210   0.103953
 -4.494701  -1.921043  -7.970866   0.419301
 -3.241845  -1.338603  -7.721493  -0.330924
 -4.102357  -0.310545  -5.707331  -0.118678
 -5.338088  -0.895422  -5.938399  -0.164117
 -5.575114  -1.717842  -7.060221  -0.202549
 -6.866899  -2.380607  -7.328024   0.387703
 -2.433839  -1.545671  -8.423164   0.164926
 -2.071571  -0.096134  -6.412702   0.085748
 -4.572763  -4.815170  -7.716320   0.121919
 -1.397254  -4.088431  -5.821628   0.202244
 -0.337585  -0.627755  -7.954911   0.094415
 -0.146814  -4.232627  -9.179337   0.318688
 -1.138167  -4.563269  -9.098401  -0.500247
 -7.230711  -0.174536  -2.348767   0.409933
 -5.977855  -0.756976  -2.099393  -0.324230
 -6.838367  -1.785023  -0.085231  -0.132069
 -8.074098  -1.200157  -0.316299  -0.155549
 -3.275321  -5.031494  -0.489055  -0.385934
 -2.092445  -4.364604  -0.300951   0.058771
 -0.891754  -4.491038  -1.066175   0.093412
  0.383249  -1.689178  -4.138439  -0.389552
 -0.734707  -2.514086  -4.464453   0.464775
 -0.569085  -3.451492  -5.521070  -0.474632
  0.226696  -3.686761  -0.740104   0.041869
 -2.053931  -1.427671  -2.726797  -0.089483
 -3.022187  -3.294121  -4.103683  -0.129565
 -5.169844  -0.549908  -2.801076   0.163194
 -4.807581  -1.999445  -0.790602   0.083224
 -6.138501  -0.698362  -5.227001   0.133460
 -7.880974  -1.519218  -5.604896   0.146106
  0.307568  -0.951825  -3.343519   0.192884
 -3.073607  -1.467824  -2.332811   0.104000
 -1.354343  -1.628918  -1.901945  -0.011697
 -2.721430  -4.349105  -4.015045   0.047766
 -7.422226  -4.135095  -3.528643   0.068033
 -3.840072  -3.102974  -3.402157   0.068025
 -7.872189  -4.112612  -1.803221   0.073711
 -3.390109  -3.125468  -5.127580   0.073702
 -1.908602  -2.409693  -3.789981  -0.086976
 -4.395399  -4.857462   0.397224   0.387710
 -2.521873  -2.873464   4.614349   0.058838
 -3.722564  -2.747041   5.379573   0.093402
 -4.841014  -3.551308   5.053503   0.041934
 -7.905859  -1.545671   2.821035   0.164926
 -7.543591  -0.096134   4.831497   0.085748
 -6.689535  -2.422899   0.785520   0.121909
 -2.049574  -3.669585   0.544613   0.036995
 -2.564732  -3.568494   3.768786   0.036999
 -6.869274  -4.088431   5.422571   0.202244
 -4.743628  -4.268820   4.237466   0.081289
 -5.618834  -4.232627   2.064862   0.318688
 -6.610187  -4.563269   2.145798  -0.500247
 -4.297940  -4.117507   1.443272  -0.398354
 -0.218919  -2.380607   3.916175   0.387703
 -1.338985  -2.206585   4.802454  -0.386028
  0.129322  -2.969249   0.075932   0.081337
 -0.316378  -3.120572   2.870127  -0.398347
 -3.896559  -1.812063   6.430209  -0.071303
 -5.088771  -1.689178   7.105760  -0.389552
 -6.206727  -2.514086   6.779746   0.464775
 -6.041105  -3.451492   5.723129  -0.474632
 -5.164452  -0.951825   7.900680   0.192884
 -0.582731  -0.174536   8.895432   0.409933
 -1.663144  -0.377727   9.806077  -0.195648
 -1.592131  -3.943948   8.417081  -0.129575
 -1.232994  -1.519218   5.639303   0.146106
 -3.072059  -1.158729   6.718330   0.118303
 -1.892876  -2.888974   8.328443   0.047754
 -0.774246  -4.135095   7.715556   0.068033
 -1.224209  -4.112612   9.440978   0.073711
 -2.705716  -4.828376   8.103379  -0.086945
 -4.423931   4.831955  -6.845570  -0.132123
 -3.188200   4.247078  -6.614501  -0.155454
 -0.539311   2.935915  -6.111155  -0.377281
 -0.286177   1.198552  -9.725782  -0.132985
 -5.504101   1.848379  -8.449217  -0.133127
 -6.454717   5.046366  -6.140198   0.083237
 -2.387787   4.444138  -7.325899   0.132003
 -0.645314   3.623282  -6.948004   0.144981
 -7.129034   1.054069  -6.731272   0.203484
  0.014580   2.253526  -9.637144   0.049809
 -5.804846   0.793395  -8.537855   0.049815
 -1.104062   1.007405  -9.024257   0.070605
 -5.136179   2.017043  -7.425320   0.071203
 -4.031575   3.221457  -4.582034   0.409963
 -5.284443   3.803897  -4.831407  -0.324239
 -7.159941   3.357477  -1.223470  -0.118667
 -5.924210   3.942343  -0.992402  -0.164091
 -2.951174   3.424658  -5.492679  -0.195711
 -1.659389   2.761893  -5.224876   0.371313
 -0.717758   4.858984  -2.116810  -0.071260
 -6.092449   3.596829  -4.129736   0.163220
 -7.308773   2.719601  -2.094221   0.122752
 -3.953525   0.327330  -4.836580   0.122772
 -5.123797   3.745293  -1.703800   0.133471
 -3.381324   4.566149  -1.325905   0.146087
 -1.542247   4.205660  -2.404932   0.118276
 -8.188691   4.514745  -4.597989   0.103953
 -2.882824   2.137048  -3.557237   0.323415
 -7.388121   0.579231  -3.454499  -0.502413
 -3.874177   2.467701  -3.476302  -0.502420
 -1.561930   2.021928  -4.178828  -0.390853
 -6.767585   4.967964   1.040066   0.419315
 -8.020453   4.385524   0.790692  -0.330896
 -5.687184   4.764773   0.129421  -0.202622
 -6.011331   2.935915   5.133044  -0.377281
 -4.828455   2.269036   5.321149   0.050521
 -3.627764   2.395459   4.555925   0.099589
 -3.453768   3.330437   3.505289  -0.075827
 -2.261556   3.453322   2.829738  -0.383063
 -2.509314   1.591192   4.881995   0.041191
 -7.859807   4.444138   3.918300   0.132003
 -6.117334   3.623282   4.296195   0.144981
 -4.278257   3.983771   3.217168   0.116518
 -2.185863   4.190675   2.034818   0.191127
 -0.523953   3.513582   0.593244  -0.017740
 -1.143601   2.628414   3.155752   0.459073
 -1.309223   1.691008   4.212369  -0.477317
  0.175624   3.714829   1.418096  -0.063776
  0.193263   5.046366   5.104001   0.083237
 -0.481054   1.054069   4.512927   0.203484
  0.030294   2.732807   2.481280  -0.088440
 -7.131409   2.761893   6.019323   0.371313
 -4.785584   1.574006   6.166712   0.037618
 -4.921873   3.998746   7.656917   0.192912
 -3.259963   4.675839   6.215343  -0.011723
 -7.033950   2.021928   7.065371  -0.390853
 -2.954929   0.285038   9.538274   0.371435
 -2.560386   4.474592   7.040195  -0.089385
 -0.660793   2.719601   9.149978   0.122752
 -2.606688   0.873680   5.698032   0.081537
 -1.540711   4.514745   6.646210   0.103953
 -1.731494   0.909873   7.870636   0.323351
 -0.740141   0.579231   7.789700  -0.502413
 -3.052388   1.024993   8.492226  -0.390946
 -1.397254   6.196569  -5.821628   0.202244
 -3.275321   5.253506  -0.489055  -0.385934
 -2.092445   5.920396  -0.300951   0.058771
 -0.891754   5.793962  -1.066175   0.093412
  0.383249   8.595822  -4.138439  -0.389552
 -0.734707   7.770914  -4.464453   0.464775
 -0.569085   6.833508  -5.521070  -0.474632
  0.226696   6.598239  -0.740104   0.041869
 -2.053931   8.857329  -2.726797  -0.089483
 -3.022187   6.990879  -4.103683  -0.129565
 -4.807581   8.285555  -0.790602   0.083224
  0.307568   9.333175  -3.343519   0.192884
 -3.073607   8.817176  -2.332811   0.104000
 -1.354343   8.656082  -1.901945  -0.011697
 -2.721430   5.935895  -4.015045   0.047766
 -7.422226   6.149905  -3.528643   0.068033
 -3.840072   7.182026  -3.402157   0.068025
 -7.872189   6.172388  -1.803221   0.073711
 -3.390109   7.159532  -5.127580   0.073702
 -1.908602   7.875307  -3.789981  -0.086976
 -4.395399   5.427538   0.397224   0.387710
 -2.521873   7.411536   4.614349   0.058838
 -3.722564   7.537959   5.379573   0.093402
 -1.160549  10.001484   0.808109  -0.075823
 -2.352761   9.878609   1.483661  -0.383029
 -4.841014   6.733692   5.053503   0.041934
 -6.689535   7.862101   0.785520   0.121909
 -2.049574   6.615415   0.544613   0.036995
 -2.564732   6.716506   3.768786   0.036999
 -2.428442   9.141246   2.278581   0.191139
 -4.743628   6.016180   4.237466   0.081289
 -5.618834   6.052373   2.064862   0.318688
 -6.610187   5.721731   2.145798  -0.500247
 -4.297940   6.167493   1.443272  -0.398354
 -0.218919   7.904393   3.916175   0.387703
 -1.338985   8.078415   4.802454  -0.386028
 -0.336049   9.348160   1.096231   0.116511
  0.129322   7.315751   0.075932   0.081337
 -0.316378   7.164428   2.870127  -0.398347
 -0.774246   6.149905   7.715556   0.068033
 -2.705716   5.456624   8.103379  -0.086945
  0.643565  -8.015964  -5.923050   0.050521
  1.193763  -6.301229  -8.027031   0.116518
  5.665283  -5.238634  -6.140198   0.083237
  0.474454  -5.548891  -2.792362  -0.389617
  0.686436  -8.710994  -5.077487   0.037618
  0.550147  -6.286254  -3.587282   0.192912
  2.212057  -5.609161  -5.028856  -0.011723
  4.960059  -6.927523  -1.223470  -0.118667
  6.195790  -6.342657  -0.992402  -0.164091
  1.397025 -10.173994  -0.819646  -0.377447
  2.911634  -5.810408  -4.204004  -0.089385
  6.027551  -6.688171  -4.129736   0.163220
  2.929273  -7.141945  -0.518099   0.085790
  4.811227  -7.565399  -2.094221   0.122752
  6.996203  -6.539707  -1.703800   0.133471
  3.931309  -5.770255  -4.597989   0.103953
  2.419632  -9.260007  -2.751973  -0.390946
  5.352415  -5.317036   1.040066   0.419315
  4.099547  -5.899476   0.790692  -0.330896
  2.224049  -5.453045   4.398629  -0.132123
  3.459780  -6.037922   4.629698  -0.155454
  6.432816  -5.520227   0.129421  -0.202622
  1.143879  -8.436621   2.794982  -0.133127
  3.291536  -5.692408   1.492375   0.164922
  4.260193  -5.840862   3.918300   0.132003
  6.002666  -6.661718   4.296195   0.144981
  1.195299  -6.610324   1.024110   0.094397
  0.843134  -9.491605   2.706344   0.049815
  1.961764  -8.245474   2.093456   0.070638
  1.511801  -8.267957   3.818879   0.071203
  2.616405  -7.063543   6.662165   0.409963
  1.363537  -6.481103   6.412792  -0.324239
  3.696806  -6.860342   5.751520  -0.195711
  0.555531  -6.688171   7.114463   0.163220
  2.950147  -2.873464  -6.629850   0.058838
  1.749456  -2.747041  -5.864626   0.093402
  3.119259  -0.406391  -9.760538  -0.383029
  0.631006  -3.551308  -6.190696   0.041934
  0.682079  -0.667908  -8.348896  -0.063828
  2.907288  -3.568494  -7.475413   0.036999
  3.043578  -1.143754  -8.965618   0.191139
  0.728392  -4.268820  -7.006733   0.081289
  1.381667  -0.466661  -7.524045  -0.017722
  8.017643  -0.310545  -5.707331  -0.118678
  6.781912  -0.895422  -5.938399  -0.164117
  6.544886  -1.717842  -7.060221  -0.202549
  5.253101  -2.380607  -7.328024   0.387703
  4.133035  -2.206585  -6.441745  -0.386028
  5.155642  -3.120572  -8.374072  -0.398347
  1.575461  -1.812063  -4.813990  -0.071303
  8.844679  -5.031494  -0.489055  -0.385934
  1.592409  -4.723983  -2.466348   0.464799
  1.426787  -3.786587  -1.409730  -0.474586
  3.879889  -3.943948  -2.827118  -0.129575
  5.981499  -0.698362  -5.227001   0.133460
  4.239026  -1.519218  -5.604896   0.146106
  2.399961  -1.158729  -4.525869   0.118303
  2.254950  -3.149648  -1.109162   0.202221
  9.046393  -1.467824  -2.332811   0.104000
  3.579144  -2.888974  -2.915756   0.047754
  4.697774  -4.135095  -3.528643   0.068033
  8.279928  -3.102974  -3.402157   0.068025
  4.247811  -4.112612  -1.803221   0.073711
  2.766304  -4.828376  -3.140820  -0.086945
  2.153279  -1.921043   3.273333   0.419301
  3.406135  -1.338603   3.522706  -0.330924
  2.545623  -0.310545   5.536868  -0.118678
  1.309892  -0.895422   5.305800  -0.164117
  1.072866  -1.717842   4.183978  -0.202549
  7.724601  -4.857462   0.397224   0.387710
  8.397436  -2.747041   5.379573   0.093402
  7.278986  -3.551308   5.053503   0.041934
  7.330059  -0.667908   2.895303  -0.063828
  4.214141  -1.545671   2.821035   0.164926
  4.576409  -0.096134   4.831497   0.085748
  2.075217  -4.815170   3.527879   0.121919
  5.250726  -4.088431   5.422571   0.202244
  7.376372  -4.268820   4.237466   0.081289
  6.310395  -0.627755   3.289288   0.094415
  8.029647  -0.466661   3.720154  -0.017722
  6.501166  -4.232627   2.064862   0.318688
  1.004516  -3.005452   2.248536   0.318663
  5.509813  -4.563269   2.145798  -0.500247
  1.995869  -2.674799   2.167600  -0.500234
  7.822060  -4.117507   1.443272  -0.398354
  0.670125  -0.756976   9.144806  -0.324230
  7.031229  -1.689178   7.105760  -0.389552
  5.913273  -2.514086   6.779746   0.464775
  6.078895  -3.451492   5.723129  -0.474632
  4.594049  -1.427671   8.517402  -0.089483
  3.625793  -3.294121   7.140516  -0.129565
  1.478136  -0.549908   8.443123   0.163194
  0.509479  -0.698362   6.017198   0.133460
  3.574373  -1.467824   8.911388   0.104000
  3.926550  -4.349105   7.229154   0.047766
  2.807908  -3.102974   7.842042   0.068025
  3.257871  -3.125468   6.116619   0.073702
  4.739378  -2.409693   7.454218  -0.086976
  0.643565   2.269036  -5.923050   0.050521
  1.844256   2.395459  -6.688274   0.099589
  2.018252   3.330437  -7.738910  -0.075827
  3.210464   3.453322  -8.414461  -0.383063
  2.001303   0.418517 -10.086552   0.459050
  2.962706   1.591192  -6.362204   0.041191
  1.193763   3.983771  -8.027031   0.116518
  0.827408   0.314124  -9.412080  -0.088493
  4.328419   2.628414  -8.088447   0.459073
  4.162797   1.691008  -7.031830  -0.477317
  5.665283   5.046366  -6.140198   0.083237
  4.990966   1.054069  -6.731272   0.203484
  6.983821   2.017043  -7.425320   0.071203
  0.474454   4.736109  -2.792362  -0.389617
  0.686436   1.574006  -5.077487   0.037618
  0.550147   3.998746  -3.587282   0.192912
  2.212057   4.675839  -5.028856  -0.011723
  8.088425   3.221457  -4.582034   0.409963
  6.835557   3.803897  -4.831407  -0.324239
  4.960059   3.357477  -1.223470  -0.118667
  6.195790   3.942343  -0.992402  -0.164091
  2.911634   4.474592  -4.204004  -0.089385
  6.027551   3.596829  -4.129736   0.163220
  2.929273   3.143055  -0.518099   0.085790
  4.811227   2.719601  -2.094221   0.122752
  8.166475   0.327330  -4.836580   0.122772
  6.996203   3.745293  -1.703800   0.133471
  8.738676   4.566149  -1.325905   0.146087
  7.986736   1.992852  -0.199528   0.203462
  2.865332   0.873680  -5.546167   0.081537
  3.931309   4.514745  -4.597989   0.103953
  8.245823   2.467701  -3.476302  -0.502420
  5.352415   4.967964   1.040066   0.419315
  4.099547   4.385524   0.790692  -0.330896
  2.224049   4.831955   4.398629  -0.132123
  3.459780   4.247078   4.629698  -0.155454
  6.432816   4.764773   0.129421  -0.202622
  6.108669   2.935915   5.133044  -0.377281
  7.291545   2.269036   5.321149   0.050521
  8.492236   2.395459   4.555925   0.099589
  8.666232   3.330437   3.505289  -0.075827
  8.649283   0.418517   1.157647   0.459050
  8.814917   1.355913   0.101029  -0.477310
  6.361803   1.198552   1.518417  -0.132985
  1.143879   1.848379   2.794982  -0.133127
  3.291536   4.592592   1.492375   0.164922
  4.260193   4.444138   3.918300   0.132003
  6.002666   3.623282   4.296195   0.144981
  7.841743   3.983771   3.217168   0.116518
  1.195299   3.674676   1.024110   0.094397
  6.662560   2.253526   1.607055   0.049809
  0.843134   0.793395   2.706344   0.049815
  5.543918   1.007405   2.219942   0.070605
  1.961764   2.039526   2.093456   0.070638
  5.993881   1.029888   0.494520   0.071159
  1.511801   2.017043   3.818879   0.071203
  7.475388   0.314124   1.832119  -0.088493
  2.616405   3.221457   6.662165   0.409963
  1.363537   3.803897   6.412792  -0.324239
  3.696806   3.424658   5.751520  -0.195711
  4.988591   2.761893   6.019323   0.371313
  0.555531   3.596829   7.114463   0.163220
  2.694455   0.327330   6.407619   0.122772
  1.524183   3.745293   9.540399   0.133471
  7.334416   1.574006   6.166712   0.037618
  3.765156   2.137048   7.686962   0.323415
  2.773803   2.467701   7.767897  -0.502420
  5.086050   2.021928   7.065371  -0.390853
  2.950147   7.411536  -6.629850   0.058838
  1.749456   7.537959  -5.864626   0.093402
  0.631006   6.733692  -6.190696   0.041934
  0.728392   6.016180  -7.006733   0.081289
  1.575461   8.472937  -4.813990  -0.071303
  5.281633   8.499977  -0.085231  -0.132069
  4.045902   9.084843  -0.316299  -0.155549
  8.844679   5.253506  -0.489055  -0.385934
  1.592409   5.561017  -2.466348   0.464799
  1.426787   6.498413  -1.409730  -0.474586
  3.879889   6.341052  -2.827118  -0.129575
  2.254950   7.135352  -1.109162   0.202221
  3.579144   7.396026  -2.915756   0.047754
  4.697774   6.149905  -3.528643   0.068033
  4.247811   6.172388  -1.803221   0.073711
  2.766304   5.456624  -3.140820  -0.086945
  2.153279   8.363957   3.273333   0.419301
  3.406135   8.946397   3.522706  -0.330924
  1.072866   8.567158   4.183978  -0.202549
  7.724601   5.427538   0.397224   0.387710
  4.214141   8.739329   2.821035   0.164926
  5.430465   7.862101   0.785520   0.121909
  2.075217   5.469830   3.527879   0.121919
  3.245489   8.887793   0.395099   0.132027
  1.503016   9.708649   0.017204   0.145021
  5.250726   6.196569   5.422571   0.202244
  7.376372   6.016180   4.237466   0.081289
  6.501166   6.052373   2.064862   0.318688
  1.004516   7.279548   2.248536   0.318663
  5.509813   5.721731   2.145798  -0.500247
  1.995869   7.610201   2.167600  -0.500234
  7.822060   6.167493   1.443272  -0.398354
  3.926550   5.935895   7.229154   0.047766
  3.257871   7.159532   6.116619   0.073702
  9.767239  -0.406391   1.483661  -0.383029
  9.691558  -1.143754   2.278581   0.191139
 10.014996   1.455739  -0.568597   0.041261
 10.112382   2.173251  -1.384633   0.081518
  9.237176   2.137048  -3.557237   0.323415
-25.549223 -18.878992   4.212369  33.642753
-25.805103 -16.980988  10.915857  26.313270
-27.194929 -20.284962   9.538274  34.399530
-28.314995 -20.458994  10.424553  35.476946
-26.800386 -16.095408   7.040195  31.936579
-26.782747 -17.426945  10.726100  29.309267
-26.846688 -19.696320   5.698032  36.380033
-26.993005 -17.113129   7.413559  32.835457
-25.780711 -16.055255   6.646210  30.255336
-25.971494 -19.660127   7.870636  32.553486
-27.292388 -19.545007   8.492226  34.120275
-25.612473 -16.184476  12.034891  23.537983
-28.541113 -15.969591  16.537957  26.847194
-27.487971 -15.738045  15.642828  24.660982
-26.252240 -16.322922  15.873897  22.252092
-30.855621 -17.941586  14.399951  35.998384
-31.021243 -18.878992  15.456568  35.463914
-29.536396 -16.855171  12.662295  33.018819
-28.568141 -18.721621  14.039181  31.521972
-26.420484 -15.977408  12.736574  25.065396
-29.518757 -15.523634  16.348200  28.812883
-30.193074 -19.515931  15.757126  34.792012
-32.318708 -19.696320  16.942231  38.319567
-29.729015 -15.837440  13.035659  32.183371
-28.516721 -16.895324  12.268309  31.280212
-28.868886 -19.776605  13.950543  33.488044
-27.750256 -18.530474  13.337655  30.296089
-28.200219 -18.552957  15.063078  29.956061
-29.681726 -17.837193  13.725479  33.366332
-27.095615 -17.348543  17.906364  24.617467
-28.348483 -16.766103  17.656991  26.181788
-31.277123 -16.980988  22.160056  30.074721
-30.223981 -17.212523  21.264928  28.584403
-28.988250 -16.627657  21.495996  25.298022
-26.015214 -17.145342  16.995719  21.912147
-32.666949 -20.284962  20.782473  37.060583
-33.787015 -20.458994  21.668752  38.003873
-32.272406 -16.095408  18.284394  33.794270
-29.156489 -16.973171  18.358662  28.195282
-32.254767 -17.426945  21.970299  32.633028
-30.372813 -17.850399  20.394177  30.270878
-27.017565 -20.242670  17.651818  27.468457
-28.187837 -16.824707  20.784598  24.503673
-26.445364 -16.003851  21.162493  19.744619
-27.197304 -18.577148  22.288870  23.500518
-32.465025 -17.113129  18.657758  34.933269
-31.252731 -16.055255  17.890409  32.067436
-31.443514 -19.660127  19.114835  35.189028
-25.946864 -18.432952  18.931161  22.643319
-30.452161 -19.990769  19.033899  32.734355
-26.938217 -18.102299  19.012096  23.535562
-32.764408 -19.545007  19.736425  36.565081
-25.578985 -12.491585   4.802454  30.014673
-25.666118 -11.485157  10.927900  19.098818
-25.903144 -10.662727   9.806077  20.290107
-28.119611 -15.008983   8.777851  32.532693
-28.285233 -14.071587   9.834469  29.878518
-25.832131 -14.228948   8.417081  26.354129
-27.312059 -11.443729   6.718330  30.298490
-27.457070 -13.434648  10.135037  27.569104
-26.132876 -13.173974   8.328443  26.358068
-26.945716 -15.113376   8.103379  30.191905
-28.209004 -10.861351  11.261403  25.297121
-27.558741 -12.206043  14.517532  22.136593
-26.305885 -11.623603  14.766905  17.017535
-26.113255 -10.827091  15.885939  14.999359
-27.166397 -10.595545  16.781067  17.111395
-28.402128 -11.180422  16.549999  21.165000
-28.639154 -12.002842  15.428177  23.395790
-29.930939 -12.665607  15.160374  28.084713
-31.051005 -12.491585  16.046653  29.113980
-25.497879 -11.830671  14.065234  16.016617
-27.636803 -15.100170  14.772078  25.201110
-26.466531 -11.682207  11.639298  21.019722
-30.945014 -11.804218  16.883502  28.144833
-30.048069 -11.221840  12.340430  29.208299
-29.582698 -13.254249  11.320131  31.070288
-28.707504 -13.290452  13.492735  27.080385
-27.716151 -12.959799  13.411799  23.468992
-30.028398 -13.405572  14.114326  29.132503
-30.294751 -10.459536  20.139631  23.683503
-29.041895 -11.041976  20.389005  20.441204
-28.849265 -11.838488  21.508039  20.572213
-29.902407 -12.070023  22.403167  22.556526
-31.138138 -11.485157  22.172099  24.809081
-31.375164 -10.662727  21.050276  25.202407
-26.339361 -15.316494  21.999343  17.898571
-33.591631 -15.008983  20.022050  34.918117
-33.757253 -14.071587  21.078668  32.809824
-31.304151 -14.228948  19.661280  29.069545
-26.086227 -13.579121  18.384715  17.095534
-28.233884 -10.834908  19.687322  19.103204
-27.871621 -12.284445  21.697796  18.791029
-29.202541 -10.983362  17.261397  22.863467
-32.784079 -11.443729  17.962529  31.241959
-32.929090 -13.434648  21.379236  31.052639
-26.137647 -11.752824  20.155587  14.680556
-31.604896 -13.173974  19.572642  29.003145
-25.785470 -14.634105  18.473353  17.783493
-30.486266 -14.420095  18.959755  28.108459
-26.904112 -13.387974  19.086241  18.748939
-30.936229 -14.397612  20.685177  28.007085
-26.454149 -13.410468  17.360818  18.512249
-32.417736 -15.113376  19.347578  32.482276
-25.549223  -8.593992   4.212369  30.136054
-25.805103  -6.695988  10.915857  12.667882
-27.194929  -9.999962   9.538274  24.157425
-28.314995 -10.173994  10.424553  25.387047
-26.800386  -5.810408   7.040195  23.456010
-26.782747  -7.141945  10.726100  17.286604
-26.846688  -9.411320   5.698032  29.819428
-26.993005  -6.828129   7.413559  24.067740
-25.780711  -5.770255   6.646210  21.793944
-25.971494  -9.375127   7.870636  23.060818
-27.292388  -9.260007   8.492226  24.643889
-25.612473  -5.899476  12.034891   8.915668
-28.541113  -5.684591  16.537957  16.345834
-27.487971  -5.453045  15.642828  13.138556
-26.252240  -6.037922  15.873897   9.372105
-30.855621  -7.656586  14.399951  26.418098
-31.021243  -8.593992  15.456568  25.858132
-29.536396  -6.570171  12.662295  22.932358
-28.568141  -8.436621  14.039181  20.526117
-26.420484  -5.692408  12.736574  11.741374
-29.518757  -5.238634  16.348200  19.016939
-30.193074  -9.230931  15.757126  24.763942
-32.318708  -9.411320  16.942231  29.164888
-29.729015  -5.552440  13.035659  22.321468
-28.516721  -6.610324  12.268309  20.466216
-28.868886  -9.491605  13.950543  22.747635
-27.750256  -8.245474  13.337655  18.670406
-28.200219  -8.267957  15.063078  18.683495
-29.681726  -7.552193  13.725479  23.178469
-27.095615  -7.063543  17.906364  13.180038
-28.348483  -6.481103  17.656991  15.640709
-31.277123  -6.695988  22.160056  21.534065
-30.223981  -6.927523  21.264928  19.585854
-28.988250  -6.342657  21.495996  16.098795
-26.015214  -6.860342  16.995719   9.169603
-32.666949  -9.999962  20.782473  28.214305
-33.787015 -10.173994  21.668752  29.448198
-32.272406  -5.810408  18.284394  25.216578
-29.156489  -6.688171  18.358662  18.237211
-32.254767  -7.141945  21.970299  24.191101
-30.372813  -7.565399  20.394177  21.045549
-27.017565  -9.957670  17.651818  15.806059
-28.187837  -6.539707  20.784598  14.771009
-26.445364  -5.718851  21.162493   9.632920
-27.197304  -8.292148  22.288870  13.504735
-32.465025  -6.828129  18.657758  26.250652
-31.252731  -5.770255  17.890409  23.134497
-31.443514  -9.375127  19.114835  25.903733
-25.946864  -8.147952  18.931161  10.649899
-30.452161  -9.705769  19.033899  23.070212
-26.938217  -7.817299  19.012096  12.297507
-32.764408  -9.260007  19.736425  27.722409
-25.578985  -2.206585   4.802454  24.635447
-25.666118  -1.200157  10.927900   6.513561
-25.903144  -0.377727   9.806077   9.265701
-28.119611  -4.723983   8.777851  23.099942
-28.285233  -3.786587   9.834469  20.052886
-25.832131  -3.943948   8.417081  14.605856
-27.312059  -1.158729   6.718330  22.593988
-27.457070  -3.149648  10.135037  16.877668
-26.132876  -2.888974   8.328443  15.295320
-26.945716  -4.828376   8.103379  20.338142
-28.209004  -0.576351  11.261403  16.511889
-27.558741  -1.921043  14.517532  12.066203
-26.305885  -1.338603  14.766905   6.314213
-26.113255  -0.542091  15.885939   5.560596
-27.166397  -0.310545  16.781067   8.897536
-28.402128  -0.895422  16.549999  12.916973
-28.639154  -1.717842  15.428177  14.451363
-29.930939  -2.380607  15.160374  19.417144
-31.051005  -2.206585  16.046653  21.042677
-25.497879  -1.545671  14.065234   3.674266
-27.636803  -4.815170  14.772078  13.793557
-26.466531  -1.397207  11.639298   9.602696
-30.945014  -1.519218  16.883502  20.414824
-30.048069  -0.936840  12.340430  21.227215
-29.582698  -2.969249  11.320131  22.027946
-28.707504  -3.005452  13.492735  17.203725
-27.716151  -2.674799  13.411799  12.842323
-30.028398  -3.120572  14.114326  20.124088
-30.294751  -0.174536  20.139631  16.834601
-29.041895  -0.756976  20.389005  13.218298
-28.849265  -1.553488  21.508039  13.103695
-29.902407  -1.785023  22.403167  15.234087
-31.138138  -1.200157  22.172099  17.767350
-31.375164  -0.377727  21.050276  18.388871
-26.339361  -5.031494  21.999343   8.360842
-33.591631  -4.723983  20.022050  26.998878
-33.757253  -3.786587  21.078668  25.191036
-31.304151  -3.943948  19.661280  20.852561
-26.086227  -3.294121  18.384715   6.532462
-28.233884  -0.549908  19.687322  11.769473
-27.871621  -1.999445  21.697796  10.993697
-29.202541  -0.698362  17.261397  15.166686
-32.784079  -1.158729  17.962529  24.052319
-32.929090  -3.149648  21.379236  23.511409
-26.137647  -1.467824  20.155587   6.369199
-31.604896  -2.888974  19.572642  21.173038
-25.785470  -4.349105  18.473353   6.428545
-30.486266  -4.135095  18.959755  19.502972
-26.904112  -3.102974  19.086241   9.150220
-30.936229  -4.112612  20.685177  19.795982
-26.454149  -3.125468  17.360818   7.778462
-32.417736  -4.828376  19.347578  24.255738
-25.549223   1.691008   4.212369  23.746421
-25.805103   3.589012  10.915857   8.293151
-27.194929   0.285038   9.538274  15.494871
-28.314995   0.111006  10.424553  17.283943
-26.800386   4.474592   7.040195  18.891309
-26.782747   3.143055  10.726100  12.011245
-26.846688   0.873680   5.698032  23.071921
-26.993005   3.456871   7.413559  18.608105
-25.780711   4.514745   6.646210  17.202085
-25.971494   0.909873   7.870636  14.377497
-27.292388   1.024993   8.492226  16.978545
-25.612473   4.385524  12.034891   6.624136
-28.541113   4.600409  16.537957  12.809402