%chk=ml.chk
%mem=5GB
%nproc=1
#hf/STO-3G symmetry=none charge force

ml

0 1
XXX__POS__XXX

  1.397020   0.111006  -0.819642  -0.377447
  2.517088   0.285034  -1.705922   0.371435
  0.214142   0.777890  -1.007752   0.050639
  1.503016  -0.576352   0.017202   0.145021
  3.808876  -0.377730  -1.438126  -0.195648
  2.419632   1.024996  -2.751970  -0.390946
 -0.986556   0.651464  -0.242525   0.099468
  0.171273   1.472914  -1.853314   0.037613
  4.045903  -1.200153  -0.316296  -0.155549
 -1.160550  -0.283514   0.808113  -0.075823
  6.142152  -0.756973  -2.099399  -0.324230
  5.281639  -1.785028  -0.085236  -0.132069
  3.245493  -1.397211   0.395094   0.132027
 -0.336053  -0.936842   1.096227   0.116511
  6.334781  -1.553487  -0.980365   0.003009
  6.950152  -0.549903  -2.801071   0.163194
  5.430460  -2.422904   0.785524   0.121909
  7.312416  -1.999445  -0.790597   0.083224

