%chk=naphthalene222.chk
%mem=2GB
%nproc=4
#wb97xd 6-311++g** opt td(nstates=1,root=1)

naphthalene222

0 1
C 	1.75823847805 	0.114255935106 	1.83556516479
C 	1.38345407005 	0.986914095506 	0.819133712994
C 	1.09752168535 	-1.14033734949 	1.99363982899
H 	2.57134602355 	0.398715217306 	2.52061833199
H 	1.88526989095 	1.95639770141 	0.685838739694
H 	1.39670990305 	-1.82091984289 	2.80598441189
C 	0.33443008345 	0.635394692006 	-0.0820760117056
C 	0.06909491055 	-1.51268718159 	1.13350102519
H 	-0.44264118755 	-2.47939517569 	1.24993593109
C 	-0.33435421265 	-0.635433514594 	0.0819583168944
C 	-0.06906860705 	1.51270880251 	-1.13353132531
H 	0.44265258635 	2.47942379721 	-1.24993153551
C 	-1.38348411355 	-0.986924689294 	-0.819111252506
H 	-1.88527731145 	-1.95642308539 	-0.685867341106
C 	-1.09755665655 	1.14034610101 	-1.99356684311
H 	-1.39672404195 	1.82090910561 	-2.80594963101
C 	-1.75828288165 	-0.114241274594 	-1.83550835741
H 	-2.57132861895 	-0.398703334094 	-2.52063316591

-3.32267308288 	-11.4312189649 	-3.46860717245 	-0.392724
-8.28480440454 	-17.0406778141 	-3.50020150128 	-0.401148
-2.61440567155 	-13.080350711 	-1.54789534539 	-0.120565
-11.4778781893 	-13.9646801134 	-4.82526224766 	-0.123894
-9.53441595104 	-14.6698729405 	-3.1987996545 	-0.399022
-6.36790226508 	-13.3684469971 	-10.1661324522 	-0.398048
-4.85910724014 	-11.9687741994 	-4.76330569135 	0.294071
-6.75151853077 	-17.580547963 	-2.20292728586 	0.295965
-0.396131920928 	-13.1259365711 	-8.26335034537 	0.338701
-3.56265694525 	-14.9124362789 	-1.29610069558 	0.338713
-12.4525062584 	-12.1409093399 	-4.60422099861 	0.394413
-8.97329583338 	-13.3828561578 	-1.66273021436 	0.326543
-5.80677269878 	-14.655469449 	-8.63005356346 	0.325885
-6.48919621747 	-16.6071501056 	3.49873507391 	-0.3938
-9.65562297604 	-11.4312435313 	10.4658486634 	-0.394036
-5.78090990888 	-14.9579956828 	5.41941477563 	-0.120013
-0.63183744366 	-12.4161290331 	0.154878162688 	-0.325587
-3.79838514469 	-15.6222211402 	7.12224308576 	-0.323678
-12.701005226 	-13.3684394382 	3.76861629117 	-0.39926
-8.02561525693 	-16.0695457382 	2.20404033446 	0.294103
-11.1921742963 	-11.9687930967 	9.1712862048 	0.29397
-6.72916685176 	-13.1259044457 	5.67117352065 	0.339056
-2.53464978614 	-18.0237775248 	6.8123204645 	-0.323236
-3.03592039197 	-13.9643834264 	9.10927673617 	-0.109785
-1.0925148455 	-14.6680890392 	10.7346962006 	-0.404183
-0.83647020194 	-15.900711949 	2.36203654504 	0.390909
-4.00297821873 	-12.1376023194 	9.32939390921 	0.39111
-0.527114498473 	-13.3819679865 	12.2698075496 	0.326992
-1.95169010521 	-5.82525988814 	-17.4350050467 	-0.397581
-11.0746957007 	-1.86330762066 	-15.4781163053 	-0.118865
-7.82169492535 	-10.0143704477 	-14.0915260807 	-0.314256
-3.20145471952 	-3.45457217753 	-17.1333084027 	-0.396803
-0.418534622539 	-6.3652207439 	-16.1376174478 	0.295829
-6.11942975356 	-0.925591569354 	-18.5386465989 	0.394368
-7.6214198752 	-6.53327407619 	-16.2977925124 	0.394461
-2.64027791008 	-2.1675138208 	-15.5972862057 	0.326174
-0.138401641782 	-5.39606721102 	-10.4159844637 	-0.385427
-14.955614628 	-5.38998796251 	-10.434416851 	-0.400674
-8.28480440454 	-5.82534303609 	-3.50020150128 	-0.401115
-18.1222190208 	-0.217620845008 	-3.46694232386 	-0.400255
-5.11820001173 	-10.9977101536 	-10.4676741387 	-0.40175
-14.2412339531 	-3.74434276083 	-8.51083264048 	-0.118625
-8.99918318972 	-7.47098823777 	-5.42378571184 	-0.118711
-17.40781 	-1.86332651792 	-1.54344126124 	-0.123013
-5.83260525307 	-9.35200448068 	-12.3911770911 	-0.116796
-12.2523162459 	-4.40676730937 	-6.81025877345 	-0.31558
-10.9881027867 	-6.80856557896 	-7.12435957887 	-0.315306
-9.08581011882 	-1.20088307213 	-13.7774989746 	-0.313806
-14.154607024 	-10.0144479265 	-0.157119377713 	-0.317216
-0.130521484403 	-8.35672737572 	-2.14206110144 	-0.106745
-11.4778781893 	-2.74934533532 	-4.82526224766 	-0.123111
-11.7625389535 	-8.46598566328 	-9.10935610466 	-0.123786
-8.3113191499 	-2.85837307631 	-11.7925950454 	-0.125559
-14.9290998826 	-8.35695792229 	-2.1420214172 	-0.12289
-2.07408198841 	-9.06039330426 	-3.76729537271 	-0.403807
-9.53441595104 	-3.45453816246 	-3.1987996545 	-0.398989
-13.7060011918 	-7.76079283614 	-10.7358186978 	-0.398915
-6.36790226508 	-2.15311410876 	-10.166134342 	-0.39844
-16.8725148777 	-9.06221877956 	-3.76848401035 	-0.399138
-1.67314071483 	-4.86086468531 	-11.7140731511 	0.296161
-6.75151853077 	-6.36521318499 	-2.20292728586 	0.295757
-3.5850407496 	-10.4577908718 	-9.17027331167 	0.296038
-0.398358018144 	-1.90610613488 	-8.26267382347 	0.335493
-15.1857171132 	-1.90930733071 	-8.26372073167 	0.340484
-8.05470002964 	-9.30602366789 	-5.67089573092 	0.340618
-18.3522440272 	-3.69840163229 	-1.2964729716 	0.341596
-4.88817122587 	-7.51692936631 	-12.638143491 	0.33981
-12.4525062584 	-0.92557456182 	-4.60421910888 	0.394313
-10.7879127742 	-10.2897564368 	-9.33039924344 	0.394447
-9.28597367514 	-4.68210416556 	-11.5714517511 	0.394234
-13.9544434677 	-6.53322683304 	-2.36316660118 	0.394855
-2.63942564366 	-7.77431571533 	-5.30247664164 	0.325742
-8.97329583338 	-2.16752137971 	-1.66273021436 	0.326597
-5.80677269878 	-3.44013467096 	-8.63005356346 	0.325382
-6.48919621747 	-5.39181532754 	3.49873507391 	-0.393601
-9.65562297604 	-0.215910642987 	10.4658486634 	-0.394429
-14.6177618566 	-5.82525988814 	10.4341768558 	-0.397581
-11.4513313186 	-10.9976836974 	3.46705948687 	-0.400746
-5.78090990888 	-3.7426609047 	5.41941477563 	-0.12019
-8.9473839106 	-1.86499514597 	12.3866266309 	-0.119379
-15.3321822158 	-7.47098067886 	8.51070035966 	-0.123036
-12.1657233318 	-9.35202337794 	1.54349984274 	-0.118783
-3.79838514469 	-4.40688825183 	7.12224308576 	-0.323775
-15.4187241072 	-1.20096055089 	0.156909618128 	-0.317633
-3.29711453886 	-8.46628235026 	4.8252868141 	-0.109728
-6.46360365839 	-8.35676705996 	11.7925572509 	-0.110419
-14.644331404 	-2.85832961261 	2.14198551241 	-0.121007
-5.24051819561 	-7.76257673748 	3.19986734969 	-0.404069
-8.40704888911 	-9.06040653234 	10.1671321173 	-0.404583
-12.7010033363 	-2.15310654986 	3.76861629117 	-0.400291
-15.8675264709 	-3.45457217753 	10.7358734999 	-0.396803
-8.02561525693 	-4.8542109601 	2.20404033446 	0.294128
-11.1921742963 	-0.753460208377 	9.1712862048 	0.293997
-13.0846063739 	-6.3652207439 	11.7315644548 	0.295829
-9.91804922427 	-10.4577719745 	4.76431858448 	0.295645
-6.72916685176 	-1.91056966767 	5.67117352065 	0.339117
-9.895678648 	-3.69705236793 	12.6385176567 	0.339228
-14.3877387399 	-9.30605768296 	8.26376230564 	0.339999
-11.2212288334 	-7.51698605809 	1.29642005928 	0.340747
-2.33005671211 	-10.2930634573 	4.60516964106 	0.391076
-5.49656283917 	-6.52995382762 	11.5725270052 	0.390992
-15.6189972676 	-4.68205692241 	2.36317416008 	0.395106
-5.80592043236 	-9.04869779011 	1.66475600062 	0.326902
-8.97243411833 	-7.77429114889 	8.63202265794 	0.327484
-12.1398378652 	-3.44015734767 	5.30462903954 	0.327024
-0.55212502195 	-7.4726700939 	8.51515066436 	-0.120206
-2.53464978614 	-6.8084446365 	6.8123204645 	-0.323517
-5.70119748717 	-10.0145348539 	13.7796853876 	-0.323351
-3.03592039197 	-2.74905053806 	9.10927673617 	-0.109694
-1.0925148455 	-3.45275426112 	10.7346962006 	-0.404092
-4.00297821873 	-0.922267541338 	9.32939390921 	0.391089
-0.527114498473 	-2.16663320849 	12.2698075496 	0.326961
-6.96501410394 	-1.20072055569 	14.0896628109 	-0.325345
-3.71862736956 	-9.35031506564 	15.4824588957 	-0.118306
-6.20251344643 	-2.85860173315 	16.0766265414 	-0.111174
-4.25895294243 	-2.15493958407 	17.701858923 	-0.404728
-2.77037609586 	-7.51822760807 	15.2306661356 	0.338771
-7.16952591976 	-4.68542819358 	16.2965925364 	0.391562
-1.95169010521 	5.39007488991 	-17.4350050467 	-0.400293
-7.82169492535 	1.20096244062 	-14.0915260807 	-0.314855
-8.59608573879 	2.85833150234 	-16.0766038647 	-0.123185
-3.20145471952 	7.76076260053 	-17.1333084027 	-0.398642
-0.418534622539 	4.85011403415 	-16.1376193375 	0.295859
-7.6214198752 	4.68206070186 	-16.2977925124 	0.394672
-2.64027791008 	9.04782095725 	-15.5972862057 	0.326581
-0.156063020884 	5.82361582653 	-10.4360854791 	-0.393045
-3.32267308288 	10.9994505912 	-3.46860717245 	-0.392724
-5.11820001173 	0.21762462446 	-10.4676741387 	-0.398957
-14.955614628 	5.82534681554 	-10.434416851 	-0.400822
-8.28480440454 	5.38999174196 	-3.50020150128 	-0.401148
-2.61440567155 	9.35031695537 	-1.54789534539 	-0.120565
-5.83260714279 	1.86332840765 	-12.3911770911 	-0.120419
-14.2412339531 	7.47099012749 	-8.51083264048 	-0.118722
-8.99918318972 	3.74434654028 	-5.42378571184 	-0.118468
-14.154607024 	1.20088496185 	-0.157119377713 	-0.314721
-12.2523162459 	6.80856746868 	-6.81025877345 	-0.31531
-10.9881027867 	4.40676919909 	-7.12435957887 	-0.315263
-9.0858082291 	10.0144517059 	-13.7774989746 	-0.317296
-14.9290998826 	2.85837685576 	-2.1420214172 	-0.122377
-11.4778781893 	8.46598944273 	-4.82526224766 	-0.123894
-11.7625389535 	2.74934911477 	-9.10935421493 	-0.123572
-8.3113191499 	8.35696170174 	-11.7925950454 	-0.123742
-16.8725148777 	2.15311599849 	-3.76848401035 	-0.397934
-9.53441595104 	7.76079661559 	-3.1987996545 	-0.399022
-13.7060011918 	3.45454194191 	-10.7358186978 	-0.398698
-6.36790226508 	9.06222066929 	-10.1661324522 	-0.398048
-1.69262945897 	6.36111625905 	-11.7306517172 	0.293919
-4.85910724014 	10.4618934669 	-4.76330569135 	0.294071
-3.5850407496 	0.757543906241 	-9.17027331167 	0.296448
-6.75151853077 	4.85012159306 	-2.20292728586 	0.295965
-0.396131920928 	9.30473298504 	-8.26335034537 	0.338701
-3.56265694525 	7.51823138752 	-1.29610069558 	0.338713
-4.88817311559 	3.69840352201 	-12.6381453807 	0.339978
-8.05470002964 	1.90930922043 	-5.67089573092 	0.340551
-13.9544434677 	4.68210794501 	-2.36316660118 	0.394629
-12.4525062584 	10.2897602162 	-4.60422099861 	0.394413
-10.7879127742 	0.925578341272 	-9.33039735371 	0.394369
-9.28597367514 	6.53322872276 	-11.5714498614 	0.394368
-17.433644444 	3.44013845041 	-5.30456478886 	0.326404
-8.97329583338 	9.04781339834 	-1.66273021436 	0.326543
-14.2671213094 	2.16752326943 	-12.271888138 	0.326606
-5.80677269878 	7.77519821736 	-8.63005356346 	0.325885
-6.48919621747 	5.82351945051 	3.49873507391 	-0.3938
-9.65562297604 	10.9994241351 	10.4658486634 	-0.394036
-11.4513313186 	0.217651080624 	3.46705948687 	-0.400025
-14.6177618566 	5.39007488991 	10.4341768558 	-0.400293
-5.78090990888 	7.47267387335 	5.41941477563 	-0.120013
-8.9473839106 	9.35033963208 	12.3866266309 	-0.119052
-12.1657233318 	1.86331140011 	1.54349984274 	-0.12034
-15.3321822158 	3.74435409919 	8.51070035966 	-0.119368
-0.63183744366 	10.014540523 	0.154878162688 	-0.325587
-3.79838514469 	6.80844652622 	7.12224308576 	-0.323678
-15.4187222175 	10.0143742272 	0.156909618128 	-0.316692
-17.3212359832 	4.40672195594 	6.81030412687 	-0.316163
-6.46360365839 	2.85856582836 	11.7925572509 	-0.110907
-3.29711453886 	2.74905242779 	4.8252868141 	-0.110034
-14.644331404 	8.35700516544 	2.14198551241 	-0.122815
-18.0956834885 	2.74928297436 	4.82532082917 	-0.122904
-8.40704888911 	2.15492824571 	10.1671321173 	-0.404392
-5.24052008533 	3.45275804057 	3.19986923942 	-0.403904
-12.701005226 	9.06222822819 	3.76861629117 	-0.39926
-8.02561525693 	6.36112381795 	2.20404033446 	0.294103
-11.1921742963 	10.4618745697 	9.1712862048 	0.29397
-9.91804922427 	0.757562803501 	4.76431858448 	0.295687
-13.0846063739 	4.85011403415 	11.7315625651 	0.295859
-6.72916685176 	9.30476322066 	5.67117352065 	0.339056
-9.89567675828 	7.51828241012 	12.6385176567 	0.339357
-11.2212288334 	3.69834871996 	1.29642005928 	0.340799
-14.3877387399 	1.90927709509 	8.26376230564 	0.340413
-5.49656283917 	4.68538095043 	11.5725270052 	0.391075
-2.33005671211 	0.92227132079 	4.60517153078 	0.391023
-15.6189972676 	6.53327596591 	2.36317416008 	0.394627
-17.120989279 	0.92559345908 	4.60403013628 	0.394721
-8.97243411833 	3.44104173944 	8.63202265794 	0.327535
-5.80592043236 	2.16663698794 	1.66475600062 	0.326882
-12.1398378652 	7.77517743038 	5.30462903954 	0.327076
-0.55212502195 	3.74266468415 	8.51515066436 	-0.120324
-5.70119748717 	1.20079803446 	13.7796853876 	-0.32165
-2.53464978614 	4.40689014156 	6.8123204645 	-0.323236
-3.03592039197 	8.46628423999 	9.10927673617 	-0.109785
-1.0925148455 	7.76258051693 	10.7346962006 	-0.404183
-0.83647020194 	6.52995760707 	2.36203654504 	0.390909
-4.00297821873 	10.293065347 	9.32939390921 	0.39111
-0.527114498473 	9.04870156956 	12.2698075496 	0.326992
-6.96501410394 	10.0146161121 	14.0896647006 	-0.323878
-3.01036184796 	0.215887966276 	17.4031726124 	-0.394056
-3.71862736956 	1.86501971241 	15.4824588957 	-0.118962
-6.20251533616 	8.3567330449 	16.0766284312 	-0.110526
-1.47392769069 	0.753443200843 	18.6978692416 	0.294331
-2.77037609586 	3.69710716999 	15.2306661356 	0.33893
-7.16952591976 	6.52990658447 	16.2965925364 	0.390788
-8.28480440454 	16.6053246303 	-3.50020150128 	-0.401115
-5.11820001173 	11.4329575128 	-10.4676741387 	-0.40175
-8.99918318972 	14.9596813183 	-5.42378571184 	-0.118711
-5.83260525307 	13.0786631857 	-12.3911770911 	-0.116796
-14.154607024 	12.4162197399 	-0.157119377713 	-0.317216
-0.130521484403 	14.0739402907 	-2.14206110144 	-0.106745
-2.07408198841 	13.3702762518 	-3.76729537271 	-0.403807
-6.75151853077 	16.0654563711 	-2.20292728586 	0.295757
-3.5850407496 	11.9728767946 	-9.17027331167 	0.296038
-3.56265694525 	18.7335661656 	-1.29610069558 	0.338683
-8.05470002964 	13.1246439985 	-5.67089573092 	0.340618
-10.7879127742 	12.1409131193 	-9.33039924344 	0.394447
-2.63942564366 	14.6563538408 	-5.30247664164 	0.325742
-6.48919621747 	17.0388542286 	3.49873507391 	-0.393601
-11.4513313186 	11.4329858587 	3.46705948687 	-0.400746
-12.1657233318 	13.0786461782 	1.54349984274 	-0.118783
-3.29711453886 	13.9643872058 	4.8252868141 	-0.109728
-6.46360365839 	14.0739006064 	11.7925572509 	-0.110419
-5.24051819561 	14.6680928186 	3.19986734969 	-0.404069
-8.40704888911 	13.3702630238 	10.1671321173 	-0.404583
-8.02561525693 	17.576458596 	2.20404033446 	0.294128
-9.91804922427 	11.9728975816 	4.76431858448 	0.295645
-11.2212288334 	14.913683498 	1.29642005928 	0.340747
-2.33005671211 	12.1376060988 	4.60516964106 	0.391076
-5.80592043236 	13.3819698763 	1.66475600062 	0.326902
-8.97243411833 	14.6563765175 	8.63202265794 	0.327484
-0.55212502195 	14.9579975725 	8.51515066436 	-0.120206
-2.53464978614 	15.6222249196 	6.8123204645 	-0.323517
-5.70119748717 	12.4161328125 	13.7796853876 	-0.323351
-0.83647020194 	17.7452904954 	2.36203654504 	0.390705
0.552155257566 	-14.9579900136 	-8.51527538628 	-0.121686
2.53457041765 	-15.6222589347 	-6.81229211861 	-0.319208
5.70105764745 	-12.416053444 	-13.779517202 	-0.323878
0.836492878651 	-17.7452375831 	-2.36202898613 	0.390819
6.48910173117 	-17.0389468251 	-3.4985309835 	-0.394035
11.4512368323 	-11.4329556231 	-3.46694421358 	-0.402812
12.1656458531 	-13.0786594062 	-1.54344126124 	-0.116042
3.29701438338 	-13.9644457873 	-4.8252357915 	-0.109303
6.46355641524 	-14.0739346215 	-11.7925534714 	-0.110526
5.24061457163 	-14.6680436858 	-3.19999585106 	-0.404888
8.40711880897 	-13.3702724724 	-10.1673229796 	-0.403264
8.02566816926 	-17.5764472576 	-2.20396663515 	0.29428
9.91807757016 	-11.9728749048 	-4.76434504065 	0.295363
11.2212118259 	-14.9137345206 	-1.2964729716 	0.340526
2.33001702786 	-12.1375890913 	-4.60535672393 	0.39014
5.80594121935 	-13.3819736557 	-1.66481836157 	0.327165
8.97246435394 	-14.6563500613 	-8.63214171068 	0.326686
8.2847288155 	-16.6054058885 	3.50038669443 	-0.400382
5.11829638775 	-11.4329820792 	10.4675040634 	-0.400953
8.99914728492 	-14.9596850978 	5.42386319061 	-0.119351
5.83268840101 	-13.0786423987 	12.3910655972 	-0.118338
14.1547336356 	-12.4162934392 	0.156909618128 	-0.316692
0.130570617279 	-14.0738987167 	2.14200629939 	-0.109171
2.074015848 	-13.3702592443 	3.7674333227 	-0.405261
6.7515714431 	-16.0654450328 	2.20300098517 	0.295764
3.58501429344 	-11.9728938021 	9.17024496578 	0.295714
3.56264371717 	-18.7336134087 	1.29604778326 	0.339327
8.05470569882 	-13.1246080937 	5.67080124463 	0.340481
10.7879543482 	-12.1409263474 	9.33053530371 	0.394684
2.63939918749 	-14.6563746278 	5.30254089232 	0.327556
3.01044877536 	-0.215910642987 	-17.4033332392 	-0.394429
3.71868784079 	-1.86499514597 	-15.4825552717 	-0.119379
6.20246809301 	-8.35676705996 	-16.0766246517 	-0.110419
1.4738993448 	-0.753460208377 	-18.6978956978 	0.293997
2.77039499312 	-3.69705236793 	-15.2306642458 	0.339228
7.16950891223 	-6.52995382762 	-16.2966548974 	0.390992
6.96487615395 	-10.0145348539 	-14.089496515 	-0.323351
0.55782254581 	-3.73554419662 	-8.50399372212 	-0.125643
2.53990322439 	-4.40636668746 	-6.80612216325 	-0.31337
5.70105764745 	-1.20072055569 	-13.7795190917 	-0.325345
3.04105477749 	-8.47126177825 	-9.10738701018 	-0.108828
1.0983748858 	-7.76976903459 	-10.7331201691 	-0.408306
4.00633437209 	-10.2982431962 	-9.32929186401 	0.388308
0.836492878651 	-6.52990280502 	-2.36202709641 	0.390083
0.526430417664 	-9.05024169624 	-12.2716405839 	0.325933
6.48961384691 	-5.82416951625 	-3.49836657734 	-0.399297
9.65571179316 	-10.9994468118 	-10.4660092901 	-0.395003
14.6178412251 	-5.38998796251 	-10.434416851 	-0.400674
11.4512368323 	-0.217620845008 	-3.46694232386 	-0.400255
5.78164501229 	-7.47337685142 	-5.41901604344 	-0.117796
8.94744438184 	-9.35031506564 	-12.3867230069 	-0.118306
15.3322219 	-3.74434276083 	-8.51083264048 	-0.118625
12.1656458531 	-1.86332651792 	-1.54344126124 	-0.123013
3.79957567207 	-6.80943296319 	-7.12183679468 	-0.323123
0.631981062836 	-10.0146123326 	-0.155101150355 	-0.32334
17.3211396072 	-4.40676730937 	-6.81025877345 	-0.31558
15.4188488291 	-10.0144479265 	-0.157119377713 	-0.317216
3.29859986349 	-2.74598729223 	-4.82135240459 	-0.115514
6.46356019469 	-2.85860173315 	-11.7925553611 	-0.111174
18.0955776638 	-2.74934533532 	-4.82526224766 	-0.123111
14.6443559705 	-8.35695792229 	-2.1420214172 	-0.12289
5.24215658804 	-3.45293567482 	-3.19847651136 	-0.403783
8.40712069869 	-2.15493958407 	-10.1673229796 	-0.404728
12.7009409754 	-9.06221877956 	-3.76848401035 	-0.399138
8.02603855555 	-6.36116539192 	-2.20360002831 	0.29611
11.1921440607 	-10.4618915772 	-9.17131266097 	0.294716
13.0845553513 	-4.85011781361 	-11.7316910665 	0.29593
9.91807757016 	-0.757540126789 	-4.76434315092 	0.296485
6.72944275176 	-9.30540761722 	-5.67144186174 	0.340144
9.89569565554 	-7.51822760807 	-12.638515767 	0.338771
14.3877387399 	-1.90930733071 	-8.26372073167 	0.340484
11.2212118259 	-3.69840163229 	-1.2964729716 	0.341596
2.3286602046 	-0.92020207083 	-4.60538695955 	0.390437
5.49654583164 	-4.68542819358 	-11.5725893662 	0.391562
17.1209514845 	-0.92557456182 	-4.60421910888 	0.394313
15.6190123854 	-6.53322683304 	-2.36316660118 	0.394855
5.80596200633 	-2.16586597974 	-1.6642457746 	0.32849
8.97246435394 	-3.44101528327 	-8.63214171068 	0.327799
12.1398114091 	-7.77519632764 	-5.30456478886 	0.327233
0.156161286636 	-5.82351567106 	10.4358284764 	-0.393567
3.32258804521 	-10.9994222453 	3.46871488683 	-0.392356
8.2847288155 	-5.39007111045 	3.50038669443 	-0.400804
14.9556939965 	-5.82525988814 	10.4341768558 	-0.397581
5.11829638775 	-0.217647301172 	10.4675040634 	-0.400693
2.61434897977 	-9.35033774236 	1.54793880909 	-0.119729
8.99914728492 	-3.74435031974 	5.42386319061 	-0.118149
14.2412736373 	-7.47098067886 	8.51070035966 	-0.123036
5.83268840101 	-1.86330762066 	12.3910655972 	-0.118865
14.1547317459 	-1.20096055089 	0.156909618128 	-0.317633
10.9882010524 	-4.40671817649 	7.1242594234 	-0.316295
12.2522198699 	-6.80861282211 	6.81030412687 	-0.316455
9.08568917636 	-10.0143704477 	13.7776558219 	-0.314256
14.9291244491 	-2.85832961261 	2.14198551241 	-0.121007
11.7626485576 	-2.74928108463 	9.10924461083 	-0.123142
11.4777723646 	-8.46605180369 	4.82532082917 	-0.122586
8.31129836292 	-8.35700138599 	11.7925780379 	-0.124162
16.8724525168 	-2.15310654986 	3.76861629117 	-0.400291
13.7059293822 	-3.45457217753 	10.7358734999 	-0.396803
9.53449342981 	-7.7607607108 	3.1986900504 	-0.400284
6.36797029521 	-9.06222633847 	10.1659472591 	-0.398795
1.69258032609 	-6.3611200385 	11.7305232158 	0.294148
4.85913936548 	-10.4618726799 	4.76327734546 	0.293961
6.7515714431 	-4.8501102547 	2.20300098517 	0.29594
3.58501429344 	-0.757559024049 	9.17024496578 	0.295733
0.396131920928 	-9.30476133093 	8.26339002962 	0.339031
3.56264371717 	-7.51827863067 	1.29604778326 	0.339359
8.05470569882 	-1.90927331564 	5.67080124463 	0.34073
4.8881957923 	-3.69834683024 	12.638143491 	0.340743
13.9544585855 	-4.68205692241 	2.36317416008 	0.395106
10.7879543482 	-0.925591569354 	9.33053530371 	0.394368
12.4524684638 	-10.289741319 	4.60403013628 	0.395115
9.28596422651 	-6.53327407619 	11.5713893902 	0.394461
17.4336179879 	-3.44015734767 	5.30462903954 	0.327024
14.2671043019 	-2.1675138208 	12.2718956969 	0.326174
8.97331662037 	-9.0478171778 	1.6626678534 	0.326943
5.8068029344 	-7.77517365093 	8.62993451072 	0.327056
1.9517694737 	-5.38998796251 	17.4347650515 	-0.400674
7.82157398288 	-1.20088307213 	14.091682928 	-0.313806
8.5960649518 	-2.85837307631 	16.0765868572 	-0.125559
3.20138290993 	-7.76079283614 	17.1333632048 	-0.398915
0.418483599937 	-4.85011781361 	16.1374908361 	0.29593
7.62141042657 	-4.68210416556 	16.2977301514 	0.394234
2.64026090254 	-9.04780961889 	15.5972937646 	0.326579
3.71868784079 	9.35033963208 	-15.4825552717 	-0.119052
6.20246809301 	2.85856582836 	-16.0766246517 	-0.110907
4.25902286229 	2.15492824571 	-17.7020497853 	-0.404392
2.77039499312 	7.51828241012 	-15.2306642458 	0.339357
7.16950891223 	4.68538095043 	-16.2966548974 	0.391075
6.96487615395 	1.20079803446 	-14.089496515 	-0.32165
0.552155257566 	7.4726776528 	-8.51527538628 	-0.121686
2.53457041765 	6.8084087317 	-6.81229211861 	-0.319208
5.70105764745 	10.0146161121 	-13.779517202 	-0.323878
3.0360243269 	2.74911478875 	-9.10938256082 	-0.112163
1.09242413866 	3.45271268715 	-10.7346206115 	-0.404661
4.00302168242 	0.922258092708 	-9.32926351812 	0.391713
0.527097490939 	2.16664265712 	-12.2697999907 	0.327039
9.65571179316 	0.215887966276 	-10.4660092901 	-0.394056
6.48910173117 	5.39172273097 	-3.4985309835 	-0.394035
14.6178412251 	5.82534681554 	-10.434416851 	-0.400822
11.4512368323 	10.997713933 	-3.46694421358 	-0.402812
8.94744438184 	1.86501971241 	-12.3867230069 	-0.118962
5.78088156299 	3.74265901497 	-5.41934296604 	-0.119115
15.3322219 	7.47099012749 	-8.51083264048 	-0.118722
12.1656458531 	9.35201014986 	-1.54344126124 	-0.116042
3.79846829264 	4.40692793608 	-7.12232623371 	-0.324568
15.4188488291 	1.20088496185 	-0.157119377713 	-0.314721
3.29701438338 	8.46622187903 	-4.8252357915 	-0.109303
6.46355641524 	8.3567330449 	-11.7925534714 	-0.110526
14.6443559705 	2.85837685576 	-2.1420214172 	-0.122377
5.24061457163 	7.76262587035 	-3.19999585106 	-0.404888
8.40711880897 	9.06039708371 	-10.1673229796 	-0.403264
12.7009409754 	2.15311599849 	-3.76848401035 	-0.397934
15.8674546613 	3.45454194191 	-10.7358186978 	-0.398698
11.1921459504 	0.753443200843 	-9.17131266097 	0.294331
8.02566816926 	4.85422229846 	-2.20396663515 	0.29428
13.0845553513 	6.36521696444 	-11.7316910665 	0.295802
9.91807757016 	10.4577946513 	-4.76434504065 	0.295363
9.89569565554 	3.69710716999 	-12.638515767 	0.33893
6.72917063121 	1.91060557246 	-5.67126800694 	0.339667
14.3877387399 	9.30602744734 	-8.26372262139 	0.34062
11.2212118259 	7.51693314576 	-1.2964729716 	0.340526
2.33001702786 	10.2930804648 	-4.60535672393 	0.39014
5.49654583164 	6.52990658447 	-11.5725893662 	0.390788
15.6190123854 	4.68210794501 	-2.36316660118 	0.394629
5.80594121935 	9.04869401065 	-1.66481836157 	0.327165
8.97246435394 	7.77431760505 	-8.63214171068 	0.326686
12.1398114091 	3.44013845041 	-5.30456478886 	0.326404
0.156161286636 	5.39181721727 	10.4358284764 	-0.393541
18.1221245345 	0.217651080624 	3.46705948687 	-0.400025
8.2847288155 	5.8252636676 	3.50038669443 	-0.400382
14.9556939965 	5.39007488991 	10.4341768558 	-0.400293
5.11829638775 	10.9976874769 	10.4675040634 	-0.400953
17.4077325213 	1.86331140011 	1.54349984274 	-0.12034
8.99914728492 	7.47098256859 	5.42386319061 	-0.119351
14.2412736373 	3.74435409919 	8.51070035966 	-0.119368
5.83268840101 	9.35202715739 	12.3910655972 	-0.118338
9.08568728663 	1.20096244062 	13.7776558219 	-0.314855
14.1547336356 	10.0143742272 	0.156909618128 	-0.316692
10.9882029421 	6.80861660156 	7.1242594234 	-0.31657
12.2522198699 	4.40672195594 	6.81030412687 	-0.316163
0.130570617279 	8.35677083942 	2.14200629939 	-0.109171
8.31129836292 	2.85833150234 	11.7925780379 	-0.123185
14.9291244491 	8.35700516544 	2.14198551241 	-0.122815
11.7626485576 	8.46605369342 	9.10924461083 	-0.122787
11.4777723646 	2.74928297436 	4.82532082917 	-0.122904
2.074015848 	9.06041031179 	3.7674333227 	-0.405261
6.36797029521 	2.15310843958 	10.1659491488 	-0.39918
16.8724506271 	9.06222822819 	3.76861629117 	-0.39926
13.7059293822 	7.76076260053 	10.7358734999 	-0.398642
9.53449342981 	3.45457406725 	3.19869194012 	-0.398551
1.69258032609 	4.85421284983 	11.7305232158 	0.294171
6.7515714431 	6.36522452335 	2.20300098517 	0.295764
3.58501429344 	10.457775754 	9.17024496578 	0.295714
0.396131920928 	1.91057344712 	8.26339002962 	0.339092
18.3522270197 	3.69834871996 	1.29642005928 	0.340799
8.05470569882 	9.30605957268 	5.67080124463 	0.340481
15.1857171132 	1.90927709509 	8.26376230564 	0.340413
4.8881957923 	7.51698794782 	12.638143491 	0.340753
9.28596233678 	4.68206070186 	11.5713893902 	0.394672
13.9544585855 	6.53327596591 	2.36317416008 	0.394627
10.7879543482 	10.2897432087 	9.33053530371 	0.394684
12.4524665741 	0.92559345908 	4.60403013628 	0.394721
2.63939918749 	7.77429492834 	5.30254089232 	0.327556
5.8068029344 	3.44016112713 	8.62993451072 	0.327028
8.97331662037 	2.16751760026 	1.6626678534 	0.326441
1.9517694737 	5.82534681554 	17.4347650515 	-0.400822
11.0747769589 	1.86332840765 	15.4780048115 	-0.120419
7.82157398288 	10.0144517059 	14.091682928 	-0.317296
3.20138290993 	3.45454194191 	17.1333632048 	-0.398698
0.418483599937 	6.36521696444 	16.1374908361 	0.295802
6.11947132753 	0.925578341272 	18.5387845489 	0.394369
7.62141042657 	6.53322872276 	16.2977320412 	0.394368
2.64026090254 	2.16752326943 	15.5972937646 	0.326606
2.53990322439 	18.0243028686 	-6.80612216325 	-0.31337
3.04105477749 	13.9594077779 	-9.10738701018 	-0.108828
1.0983748858 	14.6609005215 	-10.7331201691 	-0.408306
4.00633437209 	12.1324263599 	-9.32929186401 	0.388308
0.836492878651 	15.9007667511 	-2.36202709641 	0.390083
0.526430417664 	13.3804259701 	-12.2716405839 	0.325933
6.48961384691 	16.6064981501 	-3.49836657734 	-0.399297
9.65571179316 	11.4312227443 	-10.4660092901 	-0.395003
5.78164501229 	14.9572927047 	-5.41901604344 	-0.117796
3.79957567207 	15.6212347032 	-7.12183679468 	-0.323123
0.631981062836 	12.4160572235 	-0.155101150355 	-0.32334
12.7009409754 	13.3684507765 	-3.76848401035 	-0.399138
8.02603855555 	16.0695022745 	-2.20360002831 	0.29611
11.1921440607 	11.9687779789 	-9.17131266097 	0.294716
6.72944275176 	13.1252619389 	-5.67144186174 	0.340144
3.32258804521 	11.4312473108 	3.46871488683 	-0.392356
8.2847288155 	17.0405965559 	3.50038669443 	-0.400804
2.61434897977 	13.0803318137 	1.54793880909 	-0.119729
11.4777723646 	13.9646177524 	4.82532082917 	-0.122586
9.53449342981 	14.6699088453 	3.1986900504 	-0.400284
6.36797029521 	13.3684432176 	10.1659472591 	-0.398795
4.85913936548 	11.9687968762 	4.76327734546 	0.293961
6.7515714431 	17.5805593014 	2.20300098517 	0.29594
0.396131920928 	13.1259082252 	8.26339002962 	0.339031
3.56264371717 	14.9123890357 	1.29604778326 	0.339359
12.4524684638 	12.1409282371 	4.60403013628 	0.395115
8.97331662037 	13.3828523783 	1.6626678534 	0.326943
5.8068029344 	14.6554959052 	8.62993451072 	0.327056
-64.8481086381 	-43.6605391188 	13.7796857485 	-0.321297702315
-65.323882816 	-39.4696154316 	24.3706500568 	-0.393677192474
-66.0321019731 	-41.1186780591 	22.4498389689 	-0.118752666499
-71.1810030578 	-43.6606157899 	27.7140807602 	-0.32403749185
-68.0145156037 	-40.454409276 	20.746856537 	-0.32420098513
-68.5159697903 	-36.3951150777 	23.0439457405 	-0.108940477668
-65.3494270665 	-36.5046040959 	16.0766290062 	-0.110189752746
-66.5723697863 	-37.0987126447 	24.6691856588 	-0.404530128643
-63.7873168592 	-40.0071161497 	25.6652153014 	0.294634529804
-65.0838132734 	-42.950732819 	22.1979138333 	0.340029710923
-69.4829669072 	-34.5682574111 	23.2638261074 	0.3905030472
-66.3164382094 	-38.3314315207 	16.2965926536 	0.391134807269
-66.0070436112 	-35.8126430948 	26.2043636935 	0.327519668759
-68.4903953297 	-44.6454252433 	31.3378971309 	-0.394004194872
-71.6568220792 	-39.4695195467 	38.3050105717 	-0.393131377517
-63.528255578 	-39.0360748941 	31.3695690396 	-0.40002018641
-66.6946871406 	-33.863651011 	38.3366863689 	-0.400574351944
-69.1986351662 	-42.9963404372 	29.4171201994 	-0.119517291573
-72.3651084681 	-41.1186736459 	36.384332446 	-0.11991204822
-65.9802958407 	-35.5093107958 	40.2602471001 	-0.117954584356
-77.5141811006 	-43.6605391188 	41.6488676811 	-0.321206629
-74.3476334623 	-40.4544468787 	34.6815026687 	-0.322820628427
-63.9914099138 	-34.8468866147 	41.960864343 	-0.316918141733
-71.682413948 	-36.5045670832 	30.0111881024 	-0.108782059718
-74.8489051148 	-36.3950529451 	36.978459073 	-0.109370916354
-69.738969194 	-35.8009281106 	31.6366149025 	-0.404879037059
-72.9054993227 	-37.0987579424 	38.6038777424 	-0.403772302485
-65.4450141897 	-42.7082289352 	38.0351301513 	-0.398788036506
-66.9538448683 	-44.1078751446 	32.6324599055 	0.294325794092
-70.1204031945 	-40.0071241856 	39.5997057567 	0.294578250544
-65.0614119857 	-38.4961137424 	30.0721824467 	0.296128601116
-68.2279700496 	-34.4035626592 	37.0394269371 	0.296097439369
-68.2503407672 	-41.1642820702 	29.165229224 	0.339710157076