%chk=naphthalene222.chk
%mem=2GB
%nproc=4
#wb97xd 6-311++g** opt td(nstates=1,root=1)

naphthalene222

0 1
     C   1.758238   0.114256   1.835565
     C   1.383454   0.986914   0.819134
     C   1.097522  -1.140337   1.993640
     H   2.571346   0.398715   2.520618
     H   1.885270   1.956398   0.685839
     H   1.396710  -1.820920   2.805984
     C   0.334430   0.635395  -0.082076
     C   0.069095  -1.512687   1.133501
     H  -0.442641  -2.479395   1.249936
     C  -0.334354  -0.635434   0.081958
     C  -0.069069   1.512709  -1.133531
     H   0.442653   2.479424  -1.249932
     C  -1.383484  -0.986925  -0.819111
     H  -1.885277  -1.956423  -0.685867
     C  -1.097557   1.140346  -1.993567
     H  -1.396724   1.820909  -2.805950
     C  -1.758283  -0.114241  -1.835508
     H  -2.571329  -0.398703  -2.520633

 -3.322690 -11.431230  -3.468598  -0.392724
 -8.284801 -17.040670  -3.500202  -0.401148
 -2.614419 -13.080354  -1.547882  -0.120565
-11.477888 -13.964684  -4.825270  -0.123894
 -9.534425 -14.669882  -3.198798  -0.399022
 -6.367895 -13.368455 -10.166121  -0.398048
 -4.859115 -11.968782  -4.763317   0.294071
 -6.751522 -17.580554  -2.202920   0.295965
 -0.396145 -13.125935  -8.263352   0.338701
 -3.562638 -14.912448  -1.296112   0.338713
-12.452518 -12.140913  -4.604212   0.394413
 -8.973303 -13.382856  -1.662730   0.326543
 -5.806773 -14.655460  -8.630054   0.325885
 -6.489191 -16.607152   3.498726  -0.393800
 -9.655632 -11.431253  10.465852  -0.394036
 -5.780908 -14.958003   5.419413  -0.120013
 -0.631837 -12.416138   0.154869  -0.325587
 -3.798393 -15.622221   7.122249  -0.323678
-12.700994 -13.368432   3.768611  -0.399260
 -8.025598 -16.069555   2.204035   0.294103
-11.192180 -11.968803   9.171275   0.293970
 -6.729156 -13.125912   5.671183   0.339056
 -2.534659 -18.023783   6.812315  -0.323236
 -3.035911 -13.964393   9.109265  -0.109785
 -1.092513 -14.668087  10.734708  -0.404183
 -0.836468 -15.900720   2.362025   0.390909
 -4.002995 -12.137595   9.329403   0.391110
 -0.527103 -13.381959  12.269798   0.326992
 -1.951692  -5.825267 -17.435016  -0.397581
-11.074699  -1.863315 -15.478126  -0.118865
 -7.821685 -10.014374 -14.091522  -0.314256
 -3.201457  -3.454570 -17.133305  -0.396803
 -0.418523  -6.365219 -16.137621   0.295829
 -6.119439  -0.925601 -18.538635   0.394368
 -7.621424  -6.533268 -16.297787   0.394461
 -2.640280  -2.167521 -15.597294   0.326174
 -0.138392  -5.396079 -10.415996  -0.385427
-14.955607  -5.389979 -10.434417  -0.400674
 -8.284801  -5.825335  -3.500202  -0.401115
-18.122202  -0.217623  -3.466954  -0.400255
 -5.118206 -10.997712 -10.467665  -0.401750
-14.241247  -3.744352  -8.510831  -0.118625
 -8.999189  -7.470983  -5.423789  -0.118711
-17.407804  -1.863315  -1.543451  -0.123013
 -5.832603  -9.351997 -12.391168  -0.116796
-12.252326  -4.406775  -6.810253  -0.315580
-10.988110  -6.808560  -7.124365  -0.315306
 -9.085803  -1.200893 -13.777493  -0.313806
-14.154603 -10.014442  -0.157127  -0.317216
 -0.130538  -8.356725  -2.142054  -0.106745
-11.477888  -2.749349  -4.825270  -0.123111
-11.762548  -8.465986  -9.109349  -0.123786
 -8.311329  -2.858362 -11.792593  -0.125559
-14.929109  -8.356950  -2.142025  -0.122890
 -2.074086  -9.060397  -3.767301  -0.403807
 -9.534425  -3.454548  -3.198798  -0.398989
-13.706011  -7.760787 -10.735822  -0.398915
 -6.367895  -2.153120 -10.166121  -0.398440
-16.872513  -9.062215  -3.768499  -0.399138
 -1.673137  -4.860861 -11.714086   0.296161
 -6.751522  -6.365219  -2.202920   0.295757
 -3.585037 -10.457783  -9.170271   0.296038
 -0.398343  -1.906114  -8.262683   0.335493
-15.185725  -1.909298  -8.263713   0.340484
 -8.054681  -9.306014  -5.670905   0.340618
-18.352248  -3.698390  -1.296475   0.341596
 -4.888160  -7.516922 -12.638145   0.339810
-12.452518  -0.925578  -4.604212   0.394313
-10.787920 -10.289756  -9.330407   0.394447
 -9.285966  -4.682110 -11.571452   0.394234
-13.954442  -6.533225  -2.363167   0.394855
 -2.639428  -7.774314  -5.302475   0.325742
 -8.973303  -2.167521  -1.662730   0.326597
 -5.806773  -3.440125  -8.630054   0.325382
 -6.489191  -5.391817   3.498726  -0.393601
 -9.655632  -0.215918  10.465852  -0.394429
-14.617764  -5.825267  10.434166  -0.397581
-11.451335 -10.997689   3.467065  -0.400746
 -5.780908  -3.742668   5.419413  -0.120190
 -8.947388  -1.864999  12.386625  -0.119379
-15.332175  -7.470983   8.510691  -0.123036
-12.165737  -9.352020   1.543507  -0.118783
 -3.798393  -4.406886   7.122249  -0.323775
-15.418720  -1.200961   0.156904  -0.317633
 -3.297113  -8.466277   4.825298  -0.109728
 -6.463617  -8.356771  11.792565  -0.110419
-14.644335  -2.858341   2.141997  -0.121007
 -5.240511  -7.762582   3.199856  -0.404069
 -8.407045  -9.060397  10.167123  -0.404583
-12.700994  -2.153097   3.768611  -0.400291
-15.867528  -3.454570  10.735877  -0.396803
 -8.025598  -4.854220   2.204035   0.294128
-11.192180  -0.753468   9.171275   0.293997
-13.084595  -6.365219  11.731561   0.295829
 -9.918044 -10.457761   4.764320   0.295645
 -6.729156  -1.910577   5.671183   0.339117
 -9.895686  -3.697045  12.638506   0.339228
-14.387756  -9.306058   8.263770   0.339999
-11.221242  -7.516988   1.296418   0.340747
 -2.330057 -10.293052   4.605160   0.391076
 -5.496553  -6.529950  11.572538   0.390992
-15.618984  -4.682066   2.363167   0.395106
 -5.805920  -9.048688   1.664765   0.326902
 -8.972427  -7.774291   8.632034   0.327484
-12.139847  -3.440146   5.304620   0.327024
 -0.552116  -7.472666   8.515151  -0.120206
 -2.534659  -6.808448   6.812315  -0.323517
 -5.701186 -10.014531  13.779695  -0.323351
 -3.035911  -2.749058   9.109265  -0.109694
 -1.092513  -3.452752  10.734708  -0.404092
 -4.002995  -0.922260   9.329403   0.391089
 -0.527103  -2.166624  12.269798   0.326961
 -6.965022  -1.200713  14.089655  -0.325345
 -3.718646  -9.350315  15.482474  -0.118306
 -6.202513  -2.858609  16.076617  -0.111174
 -4.258966  -2.154938  17.701863  -0.404728
 -2.770386  -7.518222  15.230676   0.338771
 -7.169522  -4.685430  16.296587   0.391562
 -1.951692   5.390067 -17.435016  -0.400293
 -7.821685   1.200961 -14.091522  -0.314855
 -8.596073   2.858341 -16.076617  -0.123185
 -3.201457   7.760764 -17.133305  -0.398642
 -0.418523   4.850116 -16.137621   0.295859
 -7.621424   4.682066 -16.297787   0.394672
 -2.640280   9.047813 -15.597294   0.326581
 -0.156054   5.823608 -10.436089  -0.393045
 -3.322690  10.999439  -3.468598  -0.392724
 -5.118206   0.217623 -10.467665  -0.398957
-14.955607   5.825356 -10.434417  -0.400822
 -8.284801   5.389999  -3.500202  -0.401148
 -2.614419   9.350315  -1.547882  -0.120565
 -5.832603   1.863338 -12.391168  -0.120419
-14.241247   7.470983  -8.510831  -0.118722
 -8.999189   3.744352  -5.423789  -0.118468
-14.154603   1.200893  -0.157127  -0.314721
-12.252326   6.808560  -6.810253  -0.315310
-10.988110   4.406775  -7.124365  -0.315263
 -9.085803  10.014442 -13.777493  -0.317296
-14.929109   2.858384  -2.142025  -0.122377
-11.477888   8.465986  -4.825270  -0.123894
-11.762548   2.749349  -9.109349  -0.123572
 -8.311329   8.356973 -11.792593  -0.123742
-16.872513   2.153120  -3.768499  -0.397934
 -9.534425   7.760787  -3.198798  -0.399022
-13.706011   3.454548 -10.735822  -0.398698
 -6.367895   9.062215 -10.166121  -0.398048
 -1.692643   6.361114 -11.730640   0.293919
 -4.859115  10.461888  -4.763317   0.294071
 -3.585037   0.757551  -9.170271   0.296448
 -6.751522   4.850116  -2.202920   0.295965
 -0.396145   9.304735  -8.263352   0.338701
 -3.562638   7.518222  -1.296112   0.338713
 -4.888160   3.698413 -12.638145   0.339978
 -8.054681   1.909321  -5.670905   0.340551
-13.954442   4.682110  -2.363167   0.394629
-12.452518  10.289756  -4.604212   0.394413
-10.787920   0.925578  -9.330407   0.394369
 -9.285966   6.533225 -11.571452   0.394368
-17.433635   3.440146  -5.304565   0.326404
 -8.973303   9.047813  -1.662730   0.326543
-14.267133   2.167521 -12.271888   0.326606
 -5.806773   7.775210  -8.630054   0.325885
 -6.489191   5.823518   3.498726  -0.393800
 -9.655632  10.999417  10.465852  -0.394036
-11.451335   0.217645   3.467065  -0.400025
-14.617764   5.390067  10.434166  -0.400293
 -5.780908   7.472666   5.419413  -0.120013
 -8.947388   9.350336  12.386625  -0.119052
-12.165737   1.863315   1.543507  -0.120340
-15.332175   3.744352   8.510691  -0.119368
 -0.631837  10.014531   0.154869  -0.325587
 -3.798393   6.808448   7.122249  -0.323678
-15.418720  10.014374   0.156904  -0.316692
-17.321244   4.406730   6.810308  -0.316163
 -6.463617   2.858564  11.792565  -0.110907
 -3.297113   2.749058   4.825298  -0.110034
-14.644335   8.356994   2.141997  -0.122815
-18.095682   2.749283   4.825326  -0.122904
 -8.407045   2.154938  10.167123  -0.404392
 -5.240511   3.452752   3.199856  -0.403904
-12.700994   9.062238   3.768611  -0.399260
 -8.025598   6.361114   2.204035   0.294103
-11.192180  10.461867   9.171275   0.293970
 -9.918044   0.757574   4.764320   0.295687
-13.084595   4.850116  11.731561   0.295859
 -6.729156   9.304758   5.671183   0.339056
 -9.895686   7.518290  12.638506   0.339357
-11.221242   3.698347   1.296418   0.340799
-14.387756   1.909277   8.263770   0.340413
 -5.496553   4.685385  11.572538   0.391075
 -2.330057   0.922283   4.605160   0.391023
-15.618984   6.533268   2.363167   0.394627
-17.120968   0.925601   4.604017   0.394721
 -8.972427   3.441044   8.632034   0.327535
 -5.805920   2.166646   1.664765   0.326882
-12.139847   7.775189   5.304620   0.327076
 -0.552116   3.742668   8.515151  -0.120324
 -5.701186   1.200804  13.779695  -0.321650
 -2.534659   4.406886   6.812315  -0.323236
 -3.035911   8.466277   9.109265  -0.109785
 -1.092513   7.762582  10.734708  -0.404183
 -0.836468   6.529950   2.362025   0.390909
 -4.002995  10.293075   9.329403   0.391110
 -0.527103   9.048711  12.269798   0.326992
 -6.965022  10.014622  14.089655  -0.323878
 -3.010364   0.215896  17.403161  -0.394056
 -3.718646   1.865020  15.482474  -0.118962
 -6.202513   8.356725  16.076617  -0.110526
 -1.473937   0.753447  18.697881   0.294331
 -2.770386   3.697113  15.230676   0.338930
 -7.169522   6.529905  16.296587   0.390788
 -8.284801  16.605334  -3.500202  -0.401115
 -5.118206  11.432958 -10.467665  -0.401750
 -8.999189  14.959687  -5.423789  -0.118711
 -5.832603  13.078673 -12.391168  -0.116796
-14.154603  12.416227  -0.157127  -0.317216
 -0.130538  14.073944  -2.142054  -0.106745
 -2.074086  13.370272  -3.767301  -0.403807
 -6.751522  16.065451  -2.202920   0.295757
 -3.585037  11.972886  -9.170271   0.296038
 -3.562638  18.733557  -1.296112   0.338683
 -8.054681  13.124655  -5.670905   0.340618
-10.787920  12.140913  -9.330407   0.394447
 -2.639428  14.656356  -5.302475   0.325742
 -6.489191  17.038852   3.498726  -0.393601
-11.451335  11.432980   3.467065  -0.400746
-12.165737  13.078650   1.543507  -0.118783
 -3.297113  13.964393   4.825298  -0.109728
 -6.463617  14.073899  11.792565  -0.110419
 -5.240511  14.668087   3.199856  -0.404069
 -8.407045  13.370272  10.167123  -0.404583
 -8.025598  17.576449   2.204035   0.294128
 -9.918044  11.972909   4.764320   0.295645
-11.221242  14.913682   1.296418   0.340747
 -2.330057  12.137617   4.605160   0.391076
 -5.805920  13.381981   1.664765   0.326902
 -8.972427  14.656378   8.632034   0.327484
 -0.552116  14.958003   8.515151  -0.120206
 -2.534659  15.622221   6.812315  -0.323517
 -5.701186  12.416138  13.779695  -0.323351
 -0.836468  17.745285   2.362025   0.390705
  0.552136 -14.957982  -8.515262  -0.121686
  2.534557 -15.622266  -6.812286  -0.319208
  5.701050 -12.416048 -13.779527  -0.323878
  0.836499 -17.745239  -2.362025   0.390819
  6.489102 -17.038943  -3.498529  -0.394035
 11.451254 -11.432958  -3.466954  -0.402812
 12.165652 -13.078650  -1.543451  -0.116042
  3.297028 -13.964438  -4.825241  -0.109303
  6.463558 -14.073944 -11.792565  -0.110526
  5.240603 -14.668044  -3.199996  -0.404888
  8.407106 -13.370272 -10.167319  -0.403264
  8.025663 -17.576449  -2.203978   0.294280
  9.918085 -11.972886  -4.764349   0.295363
 11.221208 -14.913725  -1.296475   0.340526
  2.330028 -12.137595  -4.605355   0.390140
  5.805945 -13.381981  -1.664822   0.327165
  8.972476 -14.656356  -8.632145   0.326686
  8.284712 -16.605402   3.500398  -0.400382
  5.118312 -11.432980  10.467498  -0.400953
  8.999151 -14.959687   5.423873  -0.119351
  5.832685 -13.078650  12.391056  -0.118338
 14.154736 -12.416295   0.156904  -0.316692
  0.130565 -14.073899   2.141997  -0.109171
  2.074022 -13.370250   3.767439  -0.405261
  6.751571 -16.065451   2.203003   0.295764
  3.585020 -11.972886   9.170243   0.295714
  3.562634 -18.733625   1.296057   0.339327
  8.054704 -13.124612   5.670794   0.340481
 10.787945 -12.140936   9.330547   0.394684
  2.639403 -14.656378   5.302530   0.327556
  3.010439  -0.215918 -17.403329  -0.394429
  3.718684  -1.864999 -15.482557  -0.119379
  6.202455  -8.356771 -16.076617  -0.110419
  1.473892  -0.753468 -18.697907   0.293997
  2.770386  -3.697045 -15.230676   0.339228
  7.169518  -6.529950 -16.296644   0.390992
  6.964886 -10.014531 -14.089487  -0.323351
  0.557815  -3.735537  -8.504001  -0.125643
  2.539892  -4.406370  -6.806128  -0.313370
  5.701050  -1.200713 -13.779527  -0.325345
  3.041066  -8.471256  -9.107398  -0.108828
  1.098386  -7.769760 -10.733118  -0.408306
  4.006346 -10.298234  -9.329292   0.388308
  0.836499  -6.529905  -2.362025   0.390083
  0.526430  -9.050236 -12.271637   0.325933
  6.489618  -5.824168  -3.498363  -0.399297
  9.655708 -10.999439 -10.466021  -0.395003
 14.617849  -5.389979 -10.434417  -0.400674
 11.451254  -0.217623  -3.466954  -0.400255
  5.781647  -7.473383  -5.419024  -0.117796
  8.947425  -9.350315 -12.386708  -0.118306
 15.332209  -3.744352  -8.510831  -0.118625
 12.165652  -1.863315  -1.543451  -0.123013
  3.799564  -6.809435  -7.121829  -0.323123
  0.631968 -10.014622  -0.155092  -0.323340
 17.321130  -4.406775  -6.810253  -0.315580
 15.418853 -10.014442  -0.157127  -0.317216
  3.298596  -2.745985  -4.821341  -0.115514
  6.463558  -2.858609 -11.792565  -0.111174
 18.095568  -2.749349  -4.825270  -0.123111
 14.644347  -8.356950  -2.142025  -0.122890
  5.242155  -3.452932  -3.198463  -0.403783
  8.407106  -2.154938 -10.167319  -0.404728
 12.700943  -9.062215  -3.768499  -0.399138
  8.026046  -6.361158  -2.203589   0.296110
 11.192135 -10.461888  -9.171301   0.294716
 13.084570  -4.850116 -11.731699   0.295930
  9.918085  -0.757551  -4.764349   0.296485
  6.729448  -9.305408  -5.671434   0.340144
  9.895686  -7.518222 -12.638506   0.338771
 14.387731  -1.909298  -8.263713   0.340484
 11.221208  -3.698390  -1.296475   0.341596
  2.328651  -0.920196  -4.605383   0.390437
  5.496550  -4.685430 -11.572595   0.391562
 17.120938  -0.925578  -4.604212   0.394313
 15.619014  -6.533225  -2.363167   0.394855
  5.805947  -2.165860  -1.664236   0.328490
  8.972476  -3.441021  -8.632145   0.327799
 12.139821  -7.775189  -5.304565   0.327233
  0.156167  -5.823518  10.435838  -0.393567
  3.322580 -10.999417   3.468709  -0.392356
  8.284712  -5.390067   3.500398  -0.400804
 14.955692  -5.825267  10.434166  -0.397581
  5.118312  -0.217645  10.467498  -0.400693
  2.614364  -9.350336   1.547939  -0.119729
  8.999151  -3.744352   5.423873  -0.118149
 14.241281  -7.470983   8.510691  -0.123036
  5.832685  -1.863315  12.391056  -0.118865
 14.154736  -1.200961   0.156904  -0.317633
 10.988192  -4.406730   7.124256  -0.316295
 12.252212  -6.808605   6.810308  -0.316455
  9.085699 -10.014374  13.777660  -0.314256
 14.929121  -2.858341   2.141997  -0.121007
 11.762658  -2.749283   9.109237  -0.123142
 11.477774  -8.466052   4.825326  -0.122586
  8.311312  -8.356994  11.792565  -0.124162
 16.872462  -2.153097   3.768611  -0.400291
 13.705927  -3.454570  10.735877  -0.396803
  9.534507  -7.760764   3.198686  -0.400284
  6.367970  -9.062215  10.165953  -0.398795
  1.692577  -6.361114  11.730529   0.294148
  4.859128 -10.461867   4.763289   0.293961
  6.751571  -4.850116   2.203003   0.295940
  3.585020  -0.757551   9.170243   0.295733
  0.396134  -9.304758   8.263381   0.339031
  3.562634  -7.518290   1.296057   0.339359
  8.054704  -1.909277   5.670794   0.340730
  4.888190  -3.698347  12.638145   0.340743
 13.954472  -4.682066   2.363167   0.395106
 10.787945  -0.925601   9.330547   0.394368
 12.452487 -10.289734   4.604017   0.395115
  9.285960  -6.533268  11.571395   0.394461
 17.433609  -3.440146   5.304620   0.327024
 14.267104  -2.167521  12.271888   0.326174
  8.973330  -9.047813   1.662675   0.326943
  5.806793  -7.775166   8.629942   0.327056
  1.951777  -5.389979  17.434765  -0.400674
  7.821582  -1.200893  14.091689  -0.313806
  8.596056  -2.858362  16.076589  -0.125559
  3.201373  -7.760787  17.133359  -0.398915
  0.418499  -4.850116  16.137483   0.295930
  7.621418  -4.682110  16.297730   0.394234
  2.640251  -9.047813  15.597294   0.326579
  3.718684   9.350336 -15.482557  -0.119052
  6.202455   2.858564 -16.076617  -0.110907
  4.259027   2.154938 -17.702059  -0.404392
  2.770386   7.518290 -15.230676   0.339357
  7.169518   4.685385 -16.296644   0.391075
  6.964886   1.200804 -14.089487  -0.321650
  0.552136   7.472687  -8.515262  -0.121686
  2.534557   6.808403  -6.812286  -0.319208
  5.701050  10.014622 -13.779527  -0.323878
  3.036021   2.749126  -9.109377  -0.112163
  1.092415   3.452709 -10.734624  -0.404661
  4.003022   0.922260  -9.329264   0.391713
  0.527103   2.166646 -12.269798   0.327039
  9.655708   0.215896 -10.466021  -0.394056
  6.489102   5.391727  -3.498529  -0.394035
 14.617849   5.825356 -10.434417  -0.400822
 11.451254  10.997712  -3.466954  -0.402812
  8.947425   1.865020 -12.386708  -0.118962
  5.780868   3.742668  -5.419330  -0.119115
 15.332209   7.470983  -8.510831  -0.118722
 12.165652   9.352020  -1.543451  -0.116042
  3.798461   4.406932  -7.122332  -0.324568
 15.418853   1.200893  -0.157127  -0.314721
  3.297028   8.466231  -4.825241  -0.109303
  6.463558   8.356725 -11.792565  -0.110526
 14.644347   2.858384  -2.142025  -0.122377
  5.240603   7.762626  -3.199996  -0.404888
  8.407106   9.060397 -10.167319  -0.403264
 12.700943   2.153120  -3.768499  -0.397934
 15.867445   3.454548 -10.735822  -0.398698
 11.192135   0.753447  -9.171301   0.294331
  8.025663   4.854220  -2.203978   0.294280
 13.084570   6.365219 -11.731699   0.295802
  9.918085  10.457783  -4.764349   0.295363
  9.895686   3.697113 -12.638506   0.338930
  6.729165   1.910600  -5.671266   0.339667
 14.387731   9.306037  -8.263713   0.340620
 11.221208   7.516944  -1.296475   0.340526
  2.330028  10.293075  -4.605355   0.390140
  5.496550   6.529905 -11.572595   0.390788
 15.619014   4.682110  -2.363167   0.394629
  5.805945   9.048688  -1.664822   0.327165
  8.972476   7.774314  -8.632145   0.326686
 12.139821   3.440146  -5.304565   0.326404
  0.156167   5.391817  10.435838  -0.393541
 18.122121   0.217645   3.467065  -0.400025
  8.284712   5.825267   3.500398  -0.400382
 14.955692   5.390067  10.434166  -0.400293
  5.118312  10.997689  10.467498  -0.400953
 17.407719   1.863315   1.543507  -0.120340
  8.999151   7.470983   5.423873  -0.119351
 14.241281   3.744352   8.510691  -0.119368
  5.832685   9.352020  12.391056  -0.118338
  9.085699   1.200961  13.777660  -0.314855
 14.154736  10.014374   0.156904  -0.316692
 10.988192   6.808605   7.124256  -0.316570
 12.252212   4.406730   6.810308  -0.316163
  0.130565   8.356771   2.141997  -0.109171
  8.311312   2.858341  11.792565  -0.123185
 14.929121   8.356994   2.141997  -0.122815
 11.762658   8.466052   9.109237  -0.122787
 11.477774   2.749283   4.825326  -0.122904
  2.074022   9.060420   3.767439  -0.405261
  6.367970   2.153120  10.165953  -0.399180
 16.872462   9.062238   3.768611  -0.399260
 13.705927   7.760764  10.735877  -0.398642
  9.534507   3.454570   3.198686  -0.398551
  1.692577   4.854220  11.730529   0.294171
  6.751571   6.365219   2.203003   0.295764
  3.585020  10.457783   9.170243   0.295714
  0.396134   1.910577   8.263381   0.339092
 18.352214   3.698347   1.296418   0.340799
  8.054704   9.306058   5.670794   0.340481
 15.185700   1.909277   8.263770   0.340413
  4.888190   7.516988  12.638145   0.340753
  9.285960   4.682066  11.571395   0.394672
 13.954472   6.533268   2.363167   0.394627
 10.787945  10.289734   9.330547   0.394684
 12.452487   0.925601   4.604017   0.394721
  2.639403   7.774291   5.302530   0.327556
  5.806793   3.440169   8.629942   0.327028
  8.973300   2.167521   1.662675   0.326441
  1.951777   5.825356  17.434765  -0.400822
 11.074781   1.863338  15.478014  -0.120419
  7.821582  10.014442  14.091689  -0.317296
  3.201373   3.454548  17.133359  -0.398698
  0.418499   6.365219  16.137483   0.295802
  6.119464   0.925578  18.538775   0.394369
  7.621418   6.533225  16.297730   0.394368
  2.640251   2.167521  15.597294   0.326606
  2.539892  18.024299  -6.806128  -0.313370
  3.041066  13.959413  -9.107398  -0.108828
  1.098386  14.660910 -10.733118  -0.408306
  4.006346  12.132436  -9.329292   0.388308
  0.836499  15.900765  -2.362025   0.390083
  0.526430  13.380434 -12.271637   0.325933
  6.489618  16.606502  -3.498363  -0.399297
  9.655708  11.431230 -10.466021  -0.395003
  5.781647  14.957287  -5.419024  -0.117796
  3.799564  15.621235  -7.121829  -0.323123
  0.631968  12.416048  -0.155092  -0.323340
 12.700943  13.368455  -3.768499  -0.399138
  8.026046  16.069512  -2.203589   0.296110
 11.192135  11.968782  -9.171301   0.294716
  6.729448  13.125262  -5.671434   0.340144
  3.322580  11.431253   3.468709  -0.392356
  8.284712  17.040602   3.500398  -0.400804
  2.614364  13.080334   1.547939  -0.119729
 11.477774  13.964618   4.825326  -0.122586
  9.534507  14.669905   3.198686  -0.400284
  6.367970  13.368455  10.165953  -0.398795
  4.859128  11.968803   4.763289   0.293961
  6.751571  17.580554   2.203003   0.295940
  0.396134  13.125912   8.263381   0.339031
  3.562634  14.912380   1.296057   0.339359
 12.452487  12.140936   4.604017   0.395115
  8.973330  13.382856   1.662675   0.326943
  5.806793  14.655503   8.629942   0.327056
-64.848097 -43.660536  13.779694  -0.321298
-65.323881 -39.469612  24.370652  -0.393677
-66.032114 -41.118670  22.449852  -0.118753
-71.181015 -43.660625  27.714090  -0.324037
-68.014523 -40.454408  20.746850  -0.324201
-68.515956 -36.395107  23.043940  -0.108940
-65.349426 -36.504614  16.076616  -0.110190
-66.572380 -37.098712  24.669187  -0.404530
-63.787321 -40.007118  25.665203   0.294635
-65.083819 -42.950740  22.197915   0.340030
-69.482956 -34.568264  23.263827   0.390503
-66.316433 -38.331435  16.296588   0.391135
-66.007038 -35.812650  26.204361   0.327520
-68.490403 -44.645421  31.337892  -0.394004
-71.656816 -39.469522  38.305020  -0.393131
-63.528272 -39.036072  31.369579  -0.400020
-66.694672 -33.863649  38.336679  -0.400574
-69.198619 -42.996341  29.417120  -0.119517
-72.365099 -41.118670  36.384332  -0.119912
-65.980300 -35.509320  40.260238  -0.117955
-77.514169 -43.660536  41.648876  -0.321207
-74.347643 -40.454453  34.681497  -0.322821
-63.991403 -34.846898  41.960871  -0.316918
-71.682419 -36.504569  30.011179  -0.108782
-74.848895 -36.395062  36.978447  -0.109371
-69.738961 -35.800919  31.636622  -0.404879
-72.905496 -37.098757  38.603889  -0.403772
-65.445013 -42.708219  38.035135  -0.398788
-66.953856 -44.107870  32.632471   0.294326
-70.120408 -40.007118  39.599711   0.294578
-65.061411 -38.496121  30.072185   0.296129
-68.227963 -34.403555  37.039425   0.296097
-68.250350 -41.164294  29.165238   0.339710
-71.416851 -42.950762  36.132562   0.339504
-63.758280 -35.555280  33.539975   0.340840
-66.924794 -37.344351  40.507326   0.341145
-72.649452 -38.331390  30.231207   0.391306
-75.815979 -34.568264  37.198586   0.391525
-69.173581 -37.087048  33.171712   0.327941
-72.340086 -35.812628  40.138979   0.327401
-66.006189 -41.421170  36.499125   0.327416
-74.823346 -44.645444  45.272343  -0.393614
-77.989953 -39.469612  52.239834  -0.393578
-69.861207 -39.035982  45.303947  -0.400406
-73.027801 -33.863627  52.271410  -0.402378
-75.531630 -42.996319  43.351655  -0.118523
-78.698186 -41.118670  50.319034  -0.118657
-69.146847 -37.390356  47.227534  -0.118307
-63.904788 -41.116987  50.314575  -0.118058
-72.313403 -35.509320  54.194913  -0.115604
-83.847087 -43.660625  55.583272  -0.323951
-80.680594 -40.454408  48.616032  -0.324107
-69.060203 -43.660446  55.581237  -0.314279
-67.157925 -38.052779  48.928111  -0.314898
-65.893711 -40.454565  48.613998  -0.314851
-81.182028 -36.395107  50.913122  -0.108842
-78.015497 -36.504614  43.945798  -0.110087
-69.834708 -42.002954  53.596338  -0.121939
-66.383488 -36.395354  50.913094  -0.123483
-66.668148 -42.111990  46.629015  -0.123159
-79.238452 -37.098712  52.538369  -0.404429
-76.071951 -35.800941  45.571045  -0.402830
-71.778112 -42.708219  51.969865  -0.397492
-64.440025 -37.100552  52.539567  -0.398612
-68.611611 -41.406792  45.002542  -0.398283
-73.286921 -44.107893  46.567062   0.294770
-76.453393 -40.007118  53.534385   0.294735
-71.394485 -38.496121  44.006664   0.296220
-74.560969 -34.403555  50.974016   0.295800
-74.583368 -41.164226  43.099857   0.339362
-77.749891 -42.950740  50.067097   0.340124
-70.091325 -35.555303  47.474650   0.341036
-73.257847 -37.344396  54.441889   0.340970
-82.149027 -34.568264  51.133009   0.390603
-78.982505 -38.331435  44.165770   0.391233
-68.860041 -40.179228  53.375197   0.395060
-67.358117 -34.571583  51.134152   0.394825
-65.693519 -43.935760  46.407957   0.394782
-64.191565 -38.328115  44.166912   0.394759
-78.673109 -35.812650  54.073542   0.327623
-75.506579 -37.087026  47.106219   0.327122
-72.339234 -41.421192  50.433799   0.326843
-63.878903 -35.813525  54.075633   0.326952
-69.172733 -42.693819  43.466476   0.327022
-64.848097 -32.445201  13.779694  -0.323033
-65.323366 -28.254838  24.370819  -0.398969
-66.031337 -29.904053  22.450159  -0.117464
-68.013420 -29.240105  20.747352  -0.322785
-71.181015 -32.445291  27.714090  -0.322966
-68.514388 -25.176655  23.047841  -0.115179
-65.349426 -25.289279  16.076616  -0.110871
-66.570829 -25.883602  24.670720  -0.403454
-63.786936 -28.791828  25.665594   0.296434
-65.083536 -31.736078  22.197748   0.340476
-69.484333 -23.350865  23.263800   0.390774
-66.316433 -27.116100  16.296588   0.391877
-66.007037 -24.596530  26.204946   0.328816
-71.656816 -28.254187  38.305020  -0.393177
-68.490403 -33.430087  31.337892  -0.391985
-63.528272 -27.820737  31.369579  -0.400471
-66.694672 -22.648314  38.336679  -0.400336
-72.365099 -29.903335  36.384332  -0.119814
-69.198619 -31.781006  29.417120  -0.119362
-65.980300 -24.293985  40.260238  -0.118504
-74.347643 -29.239118  34.681497  -0.323121
-77.514169 -32.445201  41.648876  -0.322924
-63.991403 -23.631563  41.960871  -0.313450
-71.682419 -25.289234  30.011179  -0.110016
-74.848895 -25.179728  36.978447  -0.109298
-69.738961 -24.585584  31.636622  -0.403793
-72.905496 -25.883423  38.603889  -0.403700
-65.445013 -31.492884  38.035135  -0.398427
-70.120408 -28.791783  39.599711   0.294535
-66.953856 -32.892536  32.632471   0.294326
-65.061411 -27.280786  30.072185   0.296277
-68.227963 -23.188221  37.039425   0.296095
-71.416851 -31.735427  36.132562   0.339421
-68.250350 -29.948959  29.165238   0.339716
-63.758280 -24.339946  33.539975   0.341062
-66.924794 -26.129016  40.507326   0.341113
-72.649452 -27.116055  30.231207   0.391080
-75.815979 -23.352929  37.198586   0.391487
-69.173581 -25.871714  33.171712   0.327866
-72.340086 -24.597293  40.138979   0.327352
-66.006189 -30.205835  36.499125   0.327420
-77.989438 -28.254838  52.240001  -0.398853
-74.823346 -33.430109  45.272343  -0.394578
-69.861207 -27.820647  45.303947  -0.400276
-73.027801 -22.648292  52.271410  -0.399834
-78.697409 -29.904053  50.319341  -0.117351
-75.531630 -31.780984  43.351655  -0.117884
-69.146847 -26.175021  47.227534  -0.118228
-63.904788 -29.901653  50.314575  -0.118321
-72.313403 -24.293985  54.194913  -0.122589
-80.679491 -29.240105  48.616534  -0.322675
-83.847087 -32.445291  55.583272  -0.322866
-67.157925 -26.837444  48.928111  -0.315186
-65.893711 -29.239230  48.613998  -0.314914
-69.060203 -32.445111  55.581237  -0.316790
-81.180459 -25.176655  50.917023  -0.115064
-78.015497 -25.289279  43.945798  -0.110750
-66.383488 -25.180019  50.913094  -0.122717
-66.668148 -30.896655  46.629015  -0.123393
-69.834708 -30.787619  53.596338  -0.122468
-79.236901 -25.883602  52.539901  -0.403336
-76.071951 -24.585606  45.571045  -0.404309
-64.440025 -25.885217  52.539567  -0.398597
-68.611611 -30.191457  45.002542  -0.398520
-71.778112 -31.492884  51.969865  -0.398712
-76.453008 -28.791828  53.534775   0.296552
-73.286921 -32.892558  46.567062   0.295137
-71.394485 -27.280786  44.006664   0.296330
-74.560969 -23.188221  50.974016   0.296909
-77.749608 -31.736078  50.066930   0.340587
-74.583368 -29.948892  43.099857   0.339186
-70.091325 -24.339968  47.474650   0.340883
-73.257847 -26.129061  54.441889   0.342026
-82.150405 -23.350865  51.132981   0.390889
-78.982505 -27.116100  44.165770   0.391993
-67.358117 -23.356249  51.134152   0.394709
-65.693519 -32.720425  46.407957   0.394839
-64.191565 -27.112780  44.166912   0.394603
-68.860041 -28.963894  53.375197   0.395270
-78.673109 -24.596530  54.074128   0.328937
-75.506579 -25.871691  47.106219   0.328221
-63.878903 -24.598190  54.075633   0.326989
-69.172733 -31.478484  43.466476   0.326975
-72.339234 -30.205857  50.433799   0.327656
-64.848097 -21.229866  13.779694  -0.321366
-65.323881 -17.038942  24.370652  -0.393735
-66.032114 -18.688000  22.449852  -0.118811
-71.181015 -21.229956  27.714090  -0.324084
-68.014523 -18.023738  20.746850  -0.324257
-68.515956 -13.964438  23.043940  -0.108992
-65.349426 -14.073944  16.076616  -0.110253
-66.572380 -14.668043  24.669187  -0.404584
-63.787321 -17.576448  25.665203   0.294575
-65.083819 -20.520070  22.197915   0.339968
-69.482956 -12.137594  23.263827   0.390455
-66.316433 -15.900765  16.296588   0.391073
-66.007038 -13.381980  26.204361   0.327467