%chk=naphthalene222.chk
%mem=2GB
%nproc=4
#wb97xd 6-311++g** opt td(nstates=1,root=1)

naphthalene222

0 1
     C   1.748036   0.114158   1.816059
     C   1.375513   0.970742   0.809179
     C   1.092945  -1.131228   1.976123
     H   2.544258   0.400487   2.492442
     H   1.862884   1.929436   0.680165
     H   1.381755  -1.804744   2.774049
     C   0.328108   0.625455  -0.079763
     C   0.079838  -1.494052   1.122487
     H  -0.430590  -2.442805   1.234607
     C  -0.328108  -0.625455   0.079763
     C  -0.079838   1.494052  -1.122487
     H   0.430590   2.442805  -1.234607
     C  -1.375513  -0.970742  -0.809179
     H  -1.862884  -1.929436  -0.680165
     C  -1.092945   1.131228  -1.976123
     H  -1.381755   1.804744  -2.774049
     C  -1.748036  -0.114158  -1.816059
     H  -2.544258  -0.400487  -2.492442

 -3.303303 -11.431073  -3.431867  -0.392724
 -8.316905 -17.038741  -3.535428  -0.401148
 -2.599343 -13.049783  -1.529127  -0.120565
-11.469344 -13.999653  -4.846089  -0.123894
 -9.554859 -14.685291  -3.232964  -0.399022
 -6.388340 -13.353046 -10.200259  -0.398048
 -4.807950 -11.972145  -4.710031   0.294071
 -6.812260 -17.579813  -2.257264   0.295965
 -0.353823 -13.176897  -8.252622   0.338701
 -3.520340 -14.861440  -1.285327   0.338713
-12.433908 -12.206770  -4.634226   0.394413
 -9.009072 -13.412531  -1.725103   0.326543
 -5.842555 -14.625806  -8.692398   0.325885
 -6.469823 -16.607263   3.535428  -0.393800
 -9.636340 -11.431073  10.502725  -0.394036
 -5.765862 -14.988554   5.438168  -0.120013
 -0.620044 -12.397273   0.150717  -0.325587
 -3.786574 -15.641064   7.118040  -0.323678
-12.721376 -13.353046   3.734331  -0.399260
 -7.974468 -16.066191   2.257264   0.294103
-11.140985 -11.972145   9.224559   0.293970
 -6.686858 -13.176897   5.681970   0.339056
 -2.546476 -18.004941   6.816578  -0.323236
 -3.015651 -13.999653   9.088503  -0.109785
 -1.101166 -14.685291  10.701626  -0.404183
 -0.813697 -15.831567   2.333069   0.390909
 -3.980215 -12.206770   9.300364   0.391110
 -0.555381 -13.412531  12.209489   0.326992
 -1.983870  -5.823406 -17.470020  -0.397581
-11.053036  -1.834425 -15.463717  -0.118865
 -7.833636 -10.033396 -14.085335  -0.314256
 -3.221822  -3.469956 -17.167556  -0.396803
 -0.479225  -6.364478 -16.191854   0.295829
 -6.100871  -0.991435 -18.568818   0.394368
 -7.639994  -6.599103 -16.267659   0.394461
 -2.676037  -2.197196 -15.659693   0.326174
 -0.136786  -5.391929 -10.399162  -0.385427
-14.923514  -5.391929 -10.399162  -0.400674
 -8.316905  -5.823406  -3.535428  -0.401115
-18.090031  -0.215739  -3.431867  -0.400255
 -5.150388 -10.999596 -10.502725  -0.401750
-14.219553  -3.773242  -8.496422  -0.118625
 -9.020866  -7.442115  -5.438168  -0.118711
-17.386071  -1.834425  -1.529127  -0.123013
 -5.854348  -9.380887 -12.405465  -0.116796
-12.240265  -4.425729  -6.816552  -0.315580
-11.000154  -6.789606  -7.118040  -0.315306
 -9.073748  -1.181939 -13.783847  -0.313806
-14.166684 -10.033396  -0.150717  -0.317216
 -0.150866  -8.391986  -2.121208  -0.106745
-11.469344  -2.784318  -4.846089  -0.123111
-11.771077  -8.431016  -9.088503  -0.123786
 -8.302825  -2.823349 -11.813384  -0.125559
-14.937594  -8.391986  -2.121208  -0.122890
 -2.065351  -9.077624  -3.734331  -0.403807
 -9.554859  -3.469956  -3.232964  -0.398989
-13.685562  -7.745378 -10.701626  -0.398915
 -6.388340  -2.137711 -10.200259  -0.398440
-16.852079  -9.077624  -3.734331  -0.399138
 -1.641431  -4.850857 -11.677327   0.296161
 -6.812260  -6.364478  -2.257264   0.295757
 -3.645743 -10.458524  -9.224559   0.296038
 -0.353823  -1.961562  -8.252622   0.335493
-15.140551  -1.961562  -8.252622   0.340484
 -8.099870  -9.253773  -5.681970   0.340618
-18.307068  -3.646105  -1.285327   0.341596
 -4.933351  -7.569229 -12.649265   0.339810
-12.433908  -0.991435  -4.634226   0.394313
-10.806513 -10.223899  -9.300364   0.394447
 -9.267390  -4.616232 -11.601523   0.394234
-13.973031  -6.599103  -2.333069   0.394855
 -2.611138  -7.804863  -5.242192   0.325742
 -9.009072  -2.197196  -1.725103   0.326597
 -5.842555  -3.410472  -8.692398   0.325382
 -6.469823  -5.391929   3.535428  -0.393601
 -9.636340  -0.215739  10.502725  -0.394429
-14.649942  -5.823406  10.399162  -0.397581
-11.483425 -10.999596   3.431867  -0.400746
 -5.765862  -3.773242   5.438168  -0.120190
 -8.932379  -1.834425  12.405465  -0.119379
-15.353903  -7.442115   8.496422  -0.123036
-12.187385  -9.380887   1.529127  -0.118783
 -3.786574  -4.425729   7.118040  -0.323775
-15.406772  -1.181939   0.150717  -0.317633
 -3.317384  -8.431016   4.846089  -0.109728
 -6.483903  -8.391986  11.813384  -0.110419
-14.635862  -2.823349   2.121208  -0.121007
 -5.231869  -7.745378   3.232964  -0.404069
 -8.398388  -9.077624  10.200259  -0.404583
-12.721376  -2.137711   3.734331  -0.400291
-15.887894  -3.469956  10.701626  -0.396803
 -7.974468  -4.850857   2.257264   0.294128
-11.140985  -0.756811   9.224559   0.293997
-13.145297  -6.364478  11.677327   0.295829
 -9.978777 -10.458524   4.710031   0.295645
 -6.686858  -1.961562   5.681970   0.339117
 -9.853377  -3.646105  12.649265   0.339228
-14.432905  -9.253773   8.252622   0.339999
-11.266388  -7.569229   1.285327   0.340747
 -2.352820 -10.223899   4.634226   0.391076
 -5.519338  -6.599103  11.601523   0.390992
-15.600425  -4.616232   2.333069   0.395106
 -5.777656  -9.018139   1.725103   0.326902
 -8.944173  -7.804863   8.692398   0.327484
-12.175590  -3.410472   5.242192   0.327024
 -0.567175  -7.442115   8.496422  -0.120206
 -2.546476  -6.789606   6.816578  -0.323517
 -5.712980 -10.033396  13.783847  -0.323351
 -3.015651  -2.784318   9.088503  -0.109694
 -1.101166  -3.469956  10.701626  -0.404092
 -3.980215  -0.991435   9.300364   0.391089
 -0.555381  -2.197196  12.209489   0.326961
 -6.953092  -1.181939  14.085335  -0.325345
 -3.733692  -9.380887  15.463717  -0.118306
 -6.182169  -2.823349  16.055798  -0.111174
 -4.267683  -2.137711  17.668923  -0.404728
 -2.812695  -7.569229  15.219917   0.338771
 -7.146734  -4.616232  16.267659   0.391562
 -1.983870   5.391929 -17.470020  -0.400293
 -7.833636   1.181939 -14.085335  -0.314855
 -8.604559   2.823349 -16.055798  -0.123185
 -3.221822   7.745378 -17.167556  -0.398642
 -0.479225   4.850857 -16.191854   0.295859
 -7.639994   4.616232 -16.267659   0.394672
 -2.676037   9.018139 -15.659693   0.326581
 -0.136786   5.823406 -10.399162  -0.393045
 -3.303303  10.999596  -3.431867  -0.392724
 -5.150388   0.215739 -10.502725  -0.398957
-14.923514   5.823406 -10.399162  -0.400822
 -8.316905   5.391929  -3.535428  -0.401148
 -2.599343   9.380887  -1.529127  -0.120565
 -5.854348   1.834425 -12.405465  -0.120419
-14.219553   7.442115  -8.496422  -0.118722
 -9.020866   3.773242  -5.438168  -0.118468
-14.166684   1.181939  -0.150717  -0.314721
-12.240265   6.789606  -6.816552  -0.315310
-11.000154   4.425729  -7.118040  -0.315263
 -9.073748  10.033396 -13.783847  -0.317296
-14.937594   2.823349  -2.121208  -0.122377
-11.469344   8.431016  -4.846089  -0.123894
-11.771077   2.784318  -9.088503  -0.123572
 -8.302825   8.391986 -11.813384  -0.123742
-16.852079   2.137711  -3.734331  -0.397934
 -9.554859   7.745378  -3.232964  -0.399022
-13.685562   3.469956 -10.701626  -0.398698
 -6.388340   9.077624 -10.200259  -0.398048
 -1.641431   6.364478 -11.677327   0.293919
 -4.807950  10.458524  -4.710031   0.294071
 -3.645743   0.756811  -9.224559   0.296448
 -6.812260   4.850857  -2.257264   0.295965
 -0.353823   9.253773  -8.252622   0.338701
 -3.520340   7.569229  -1.285327   0.338713
 -4.933351   3.646105 -12.649265   0.339978
-15.140551   9.253773  -8.252622   0.340620
 -8.099870   1.961562  -5.681970   0.340551
-13.973031   4.616232  -2.333069   0.394629
-12.433908  10.223899  -4.634226   0.394413
-10.806513   0.991435  -9.300364   0.394369
 -9.267390   6.599103 -11.601523   0.394368
-17.397866   3.410472  -5.242192   0.326404
 -9.009072   9.018139  -1.725103   0.326543
-14.231347   2.197196 -12.209489   0.326606
 -5.842555   7.804863  -8.692398   0.325885
 -6.469823   5.823406   3.535428  -0.393800
 -9.636340  10.999596  10.502725  -0.394036
-11.483425   0.215739   3.431867  -0.400025
-14.649942   5.391929  10.399162  -0.400293
 -5.765862   7.442115   5.438168  -0.120013
 -8.932379   9.380887  12.405465  -0.119052
-12.187385   1.834425   1.529127  -0.120340
-15.353903   3.773242   8.496422  -0.119368
 -0.620044  10.033396   0.150717  -0.325587
 -3.786574   6.789606   7.118040  -0.323678
-15.406772  10.033396   0.150717  -0.316692
-17.333204   4.425729   6.816578  -0.316163
 -6.483903   2.823349  11.813384  -0.110907
 -3.317384   2.784318   4.846089  -0.110034
-14.635862   8.391986   2.121208  -0.122815
-18.104112   2.784318   4.846089  -0.122904
 -8.398388   2.137711  10.200259  -0.404392
 -5.231869   3.469956   3.232964  -0.403904
-12.721376   9.077624   3.734331  -0.399260
 -7.974468   6.364478   2.257264   0.294103
-11.140985  10.458524   9.224559   0.293970
 -9.978777   0.756811   4.710031   0.295687
-13.145297   4.850857  11.677327   0.295859
 -6.686858   9.253773   5.681970   0.339056
 -9.853377   7.569229  12.649265   0.339357
-11.266388   3.646105   1.285327   0.340799
-14.432905   1.961562   8.252622   0.340413
 -5.519338   4.616232  11.601523   0.391075
 -2.352820   0.991435   4.634226   0.391023
-15.600425   6.599103   2.333069   0.394627
-17.139548   0.991435   4.634226   0.394721
 -8.944173   3.410472   8.692398   0.327535
 -5.777656   2.197196   1.725103   0.326882
-12.175590   7.804863   5.242192   0.327076
 -0.567175   3.773242   8.496422  -0.120324
 -5.712980   1.181939  13.783847  -0.321650
 -2.546476   4.425729   6.816578  -0.323236
 -3.015651   8.431016   9.088503  -0.109785
 -1.101166   7.745378  10.701626  -0.404183
 -0.813697   6.599103   2.333069   0.390909
 -3.980215  10.223899   9.300364   0.391110
 -0.555381   9.018139  12.209489   0.326992
 -6.953092  10.033396  14.085335  -0.323878
 -3.029732   0.215739  17.366457  -0.394056
 -3.733692   1.834425  15.463717  -0.118962
 -6.182169   8.391986  16.055798  -0.110526
 -1.525086   0.756811  18.644622   0.294331
 -2.812695   3.646105  15.219917   0.338930
 -7.146734   6.599103  16.267659   0.390788
 -8.316905  16.607263  -3.535428  -0.401115
 -5.150388  11.431073 -10.502725  -0.401750
 -9.020866  14.988554  -5.438168  -0.118711
 -5.854348  13.049783 -12.405465  -0.116796
-14.166684  12.397273  -0.150717  -0.317216
 -0.150866  14.038684  -2.121208  -0.106745
 -2.065351  13.353046  -3.734331  -0.403807
 -6.812260  16.066191  -2.257264   0.295757
 -3.645743  11.972145  -9.224559   0.296038
 -3.520340  18.784564  -1.285327   0.338683
 -8.099870  13.176897  -5.681970   0.340618
-10.806513  12.206770  -9.300364   0.394447
 -2.611138  14.625806  -5.242192   0.325742
 -6.469823  17.038741   3.535428  -0.393601
-11.483425  11.431073   3.431867  -0.400746
-12.187385  13.049783   1.529127  -0.118783
 -3.317384  13.999653   4.846089  -0.109728
 -6.483903  14.038684  11.813384  -0.110419
 -5.231869  14.685291   3.232964  -0.404069
 -8.398388  13.353046  10.200259  -0.404583
 -7.974468  17.579813   2.257264   0.294128
 -9.978777  11.972145   4.710031   0.295645
-11.266388  14.861440   1.285327   0.340747
 -2.352820  12.206770   4.634226   0.391076
 -5.777656  13.412531   1.725103   0.326902
 -8.944173  14.625806   8.692398   0.327484
 -0.567175  14.988554   8.496422  -0.120206
 -2.546476  15.641064   6.816578  -0.323517
 -5.712980  12.397273  13.783847  -0.323351
 -0.813697  17.814437   2.333069   0.390705
  0.567175 -14.988554  -8.496422  -0.121686
  2.546462 -15.641064  -6.816552  -0.319208
  5.712980 -12.397273 -13.783847  -0.323878
  0.813697 -17.814437  -2.333069   0.390819
  6.469823 -17.038741  -3.535428  -0.394035
 11.483425 -11.431073  -3.431867  -0.402812
 12.187385 -13.049783  -1.529127  -0.116042
  3.317384 -13.999653  -4.846089  -0.109303
  6.483903 -14.038684 -11.813384  -0.110526
  5.231869 -14.685291  -3.232964  -0.404888
  8.398388 -13.353046 -10.200259  -0.403264
  7.974468 -17.579813  -2.257264   0.294280
  9.978777 -11.972145  -4.710031   0.295363
 11.266388 -14.861440  -1.285327   0.340526
  2.352820 -12.206770  -4.634226   0.390140
  5.777656 -13.412531  -1.725103   0.327165
  8.944173 -14.625806  -8.692398   0.326686
  8.316905 -16.607263   3.535428  -0.400382
  5.150388 -11.431073  10.502725  -0.400953
  9.020866 -14.988554   5.438168  -0.119351
  5.854348 -13.049783  12.405465  -0.118338
 14.166684 -12.397273   0.150717  -0.316692
  0.150866 -14.038684   2.121208  -0.109171
  2.065351 -13.353046   3.734331  -0.405261
  6.812260 -16.066191   2.257264   0.295764
  3.645743 -11.972145   9.224559   0.295714
  3.520340 -18.784564   1.285327   0.339327
  8.099870 -13.176897   5.681970   0.340481
 10.806513 -12.206770   9.300364   0.394684
  2.611138 -14.625806   5.242192   0.327556
  3.029732  -0.215739 -17.366457  -0.394429
  3.733692  -1.834425 -15.463717  -0.119379
  6.182169  -8.391986 -16.055798  -0.110419
  1.525086  -0.756811 -18.644622   0.293997
  2.812695  -3.646105 -15.219917   0.339228
  7.146734  -6.599103 -16.267659   0.390992
  6.953092 -10.033396 -14.085335  -0.323351
  0.567175  -3.773242  -8.496422  -0.125643
  2.546462  -4.425729  -6.816552  -0.313370
  5.712980  -1.181939 -13.783847  -0.325345
  3.015651  -8.431016  -9.088503  -0.108828
  1.101166  -7.745378 -10.701626  -0.408306
  3.980215 -10.223899  -9.300364   0.388308
  0.813697  -6.599103  -2.333069   0.390083
  0.555381  -9.018139 -12.209489   0.325933
  6.469823  -5.823406  -3.535428  -0.399297
  9.636340 -10.999596 -10.502725  -0.395003
 14.649942  -5.391929 -10.399162  -0.400674
 11.483425  -0.215739  -3.431867  -0.400255
  5.765862  -7.442115  -5.438168  -0.117796
  8.932379  -9.380887 -12.405465  -0.118306
 15.353903  -3.773242  -8.496422  -0.118625
 12.187385  -1.834425  -1.529127  -0.123013
  3.786574  -6.789606  -7.118040  -0.323123
  0.620044 -10.033396  -0.150717  -0.323340
 17.333190  -4.425729  -6.816552  -0.315580
 15.406772 -10.033396  -0.150717  -0.317216
  3.317384  -2.784318  -4.846089  -0.115514
  6.483903  -2.823349 -11.813384  -0.111174
 18.104112  -2.784318  -4.846089  -0.123111
 14.635862  -8.391986  -2.121208  -0.122890
  5.231869  -3.469956  -3.232964  -0.403783
  8.398388  -2.137711 -10.200259  -0.404728
 12.721376  -9.077624  -3.734331  -0.399138
  7.974468  -6.364478  -2.257264   0.296110
 11.140985 -10.458524  -9.224559   0.294716
 13.145297  -4.850857 -11.677327   0.295930
  9.978777  -0.756811  -4.710031   0.296485
  6.686858  -9.253773  -5.681970   0.340144
  9.853377  -7.569229 -12.649265   0.338771
 14.432905  -1.961562  -8.252622   0.340484
 11.266388  -3.646105  -1.285327   0.341596
  2.352820  -0.991435  -4.634226   0.390437
  5.519338  -4.616232 -11.601523   0.391562
 17.139548  -0.991435  -4.634226   0.394313
 15.600425  -6.599103  -2.333069   0.394855
  5.777656  -2.197196  -1.725103   0.328490
  8.944173  -3.410472  -8.692398   0.327799
 12.175590  -7.804863  -5.242192   0.327233
  0.136786  -5.823406  10.399162  -0.393567
  3.303303 -10.999596   3.431867  -0.392356
  8.316905  -5.391929   3.535428  -0.400804
 14.923514  -5.823406  10.399162  -0.397581
  5.150388  -0.215739  10.502725  -0.400693
  2.599343  -9.380887   1.529127  -0.119729
  9.020866  -3.773242   5.438168  -0.118149
 14.219553  -7.442115   8.496422  -0.123036
  5.854348  -1.834425  12.405465  -0.118865
 14.166684  -1.181939   0.150717  -0.317633
 11.000154  -4.425729   7.118040  -0.316295
 12.240252  -6.789606   6.816578  -0.316455
  9.073748 -10.033396  13.783847  -0.314256
 14.937594  -2.823349   2.121208  -0.121007
 11.771077  -2.784318   9.088503  -0.123142
 11.469344  -8.431016   4.846089  -0.122586
  8.302825  -8.391986  11.813384  -0.124162
 16.852079  -2.137711   3.734331  -0.400291
 13.685562  -3.469956  10.701626  -0.396803
  9.554859  -7.745378   3.232964  -0.400284
  6.388340  -9.077624  10.200259  -0.398795
  1.641431  -6.364478  11.677327   0.294148
  4.807950 -10.458524   4.710031   0.293961
  6.812260  -4.850857   2.257264   0.295940
  3.645743  -0.756811   9.224559   0.295733
  0.353823  -9.253773   8.252622   0.339031
  3.520340  -7.569229   1.285327   0.339359
  8.099870  -1.961562   5.681970   0.340730
 15.140551  -9.253773   8.252622   0.339999
  4.933351  -3.646105  12.649265   0.340743
 13.973031  -4.616232   2.333069   0.395106
 10.806513  -0.991435   9.300364   0.394368
 12.433908 -10.223899   4.634226   0.395115
  9.267390  -6.599103  11.601523   0.394461
 17.397866  -3.410472   5.242192   0.327024
 14.231347  -2.197196  12.209489   0.326174
  9.009072  -9.018139   1.725103   0.326943
  5.842555  -7.804863   8.692398   0.327056
  1.983870  -5.391929  17.470020  -0.400674
  7.833636  -1.181939  14.085335  -0.313806
  8.604559  -2.823349  16.055798  -0.125559
  3.221822  -7.745378  17.167556  -0.398915
  0.479225  -4.850857  16.191854   0.295930
  7.639994  -4.616232  16.267659   0.394234
  2.676037  -9.018139  15.659693   0.326579
  3.733692   9.380887 -15.463717  -0.119052
  6.182169   2.823349 -16.055798  -0.110907
  4.267683   2.137711 -17.668923  -0.404392
  2.812695   7.569229 -15.219917   0.339357
  7.146734   4.616232 -16.267659   0.391075
  6.953092   1.181939 -14.085335  -0.321650
  0.567175   7.442115  -8.496422  -0.121686
  2.546462   6.789606  -6.816552  -0.319208
  5.712980  10.033396 -13.783847  -0.323878
  3.015651   2.784318  -9.088503  -0.112163
  1.101166   3.469956 -10.701626  -0.404661
  3.980215   0.991435  -9.300364   0.391713
  0.555381   2.197196 -12.209489   0.327039
  9.636340   0.215739 -10.502725  -0.394056
  6.469823   5.391929  -3.535428  -0.394035
 14.649942   5.823406 -10.399162  -0.400822
 11.483425  10.999596  -3.431867  -0.402812
  8.932379   1.834425 -12.405465  -0.118962
  5.765862   3.773242  -5.438168  -0.119115
 15.353903   7.442115  -8.496422  -0.118722
 12.187385   9.380887  -1.529127  -0.116042
  3.786574   4.425729  -7.118040  -0.324568
 15.406772   1.181939  -0.150717  -0.314721
  3.317384   8.431016  -4.846089  -0.109303
  6.483903   8.391986 -11.813384  -0.110526
 14.635862   2.823349  -2.121208  -0.122377
  5.231869   7.745378  -3.232964  -0.404888
  8.398388   9.077624 -10.200259  -0.403264
 12.721376   2.137711  -3.734331  -0.397934
 15.887894   3.469956 -10.701626  -0.398698
 11.140985   0.756811  -9.224559   0.294331
  7.974468   4.850857  -2.257264   0.294280
 13.145297   6.364478 -11.677327   0.295802
  9.978777  10.458524  -4.710031   0.295363
  9.853377   3.646105 -12.649265   0.338930
  6.686858   1.961562  -5.681970   0.339667
 14.432905   9.253773  -8.252622   0.340620
 11.266388   7.569229  -1.285327   0.340526
  2.352820  10.223899  -4.634226   0.390140
  5.519338   6.599103 -11.601523   0.390788
 15.600425   4.616232  -2.333069   0.394629
  5.777656   9.018139  -1.725103   0.327165
  8.944173   7.804863  -8.692398   0.326686
 12.175590   3.410472  -5.242192   0.326404
  0.136786   5.391929  10.399162  -0.393541
 18.090031   0.215739   3.431867  -0.400025
  8.316905   5.823406   3.535428  -0.400382
 14.923514   5.391929  10.399162  -0.400293
  5.150388  10.999596  10.502725  -0.400953
 17.386071   1.834425   1.529127  -0.120340
  9.020866   7.442115   5.438168  -0.119351
 14.219553   3.773242   8.496422  -0.119368
  5.854348   9.380887  12.405465  -0.118338
  9.073748   1.181939  13.783847  -0.314855
 14.166684  10.033396   0.150717  -0.316692
 11.000154   6.789606   7.118040  -0.316570
 12.240252   4.425729   6.816578  -0.316163
  0.150866   8.391986   2.121208  -0.109171
  8.302825   2.823349  11.813384  -0.123185
 14.937594   8.391986   2.121208  -0.122815
 11.771077   8.431016   9.088503  -0.122787
 11.469344   2.784318   4.846089  -0.122904
  2.065351   9.077624   3.734331  -0.405261
  6.388340   2.137711  10.200259  -0.399180
 16.852079   9.077624   3.734331  -0.399260
 13.685562   7.745378  10.701626  -0.398642
  9.554859   3.469956   3.232964  -0.398551
  1.641431   4.850857  11.677327   0.294171
  6.812260   6.364478   2.257264   0.295764
  3.645743  10.458524   9.224559   0.295714
  0.353823   1.961562   8.252622   0.339092
 18.307068   3.646105   1.285327   0.340799
  8.099870   9.253773   5.681970   0.340481
 15.140551   1.961562   8.252622   0.340413
  4.933351   7.569229  12.649265   0.340753
  9.267390   4.616232  11.601523   0.394672
 13.973031   6.599103   2.333069   0.394627
 10.806513  10.223899   9.300364   0.394684
 12.433908   0.991435   4.634226   0.394721
  2.611138   7.804863   5.242192   0.327556
  5.842555   3.410472   8.692398   0.327028
  9.009072   2.197196   1.725103   0.326441
  1.983870   5.823406  17.470020  -0.400822
 11.053036   1.834425  15.463717  -0.120419
  7.833636  10.033396  14.085335  -0.317296
  3.221822   3.469956  17.167556  -0.398698
  0.479225   6.364478  16.191854   0.295802
  6.100871   0.991435  18.568818   0.394369
  7.639994   6.599103  16.267659   0.394368
  2.676037   2.197196  15.659693   0.326606
  2.546462  18.004941  -6.816552  -0.313370
  3.015651  13.999653  -9.088503  -0.108828
  1.101166  14.685291 -10.701626  -0.408306
  3.980215  12.206770  -9.300364   0.388308
  0.813697  15.831567  -2.333069   0.390083
  0.555381  13.412531 -12.209489   0.325933
  6.469823  16.607263  -3.535428  -0.399297
  9.636340  11.431073 -10.502725  -0.395003
  5.765862  14.988554  -5.438168  -0.117796
  3.786574  15.641064  -7.118040  -0.323123
  0.620044  12.397273  -0.150717  -0.323340
 12.721376  13.353046  -3.734331  -0.399138
  7.974468  16.066191  -2.257264   0.296110
 11.140985  11.972145  -9.224559   0.294716
  6.686858  13.176897  -5.681970   0.340144
  3.303303  11.431073   3.431867  -0.392356
  8.316905  17.038741   3.535428  -0.400804
  2.599343  13.049783   1.529127  -0.119729
 11.469344  13.999653   4.846089  -0.122586
  9.554859  14.685291   3.232964  -0.400284
  6.388340  13.353046  10.200259  -0.398795
  4.807950  11.972145   4.710031   0.293961
  6.812260  17.579813   2.257264   0.295940
  0.353823  13.176897   8.252622   0.339031
  3.520340  14.861440   1.285327   0.339359
 12.433908  12.206770   4.634226   0.395115
  9.009072  13.412531   1.725103   0.326943
  5.842555  14.625806   8.692398   0.327056
-64.859892 -43.679400  13.783847  -0.321282
-65.343161 -39.469410  24.333753  -0.393662
-66.047122 -41.088097  22.431013  -0.118737
-71.192940 -43.679400  27.718465  -0.324020
-68.026410 -40.435611  20.751142  -0.324185
-68.495599 -36.430323  23.023093  -0.108924
-65.329081 -36.469353  16.055798  -0.110175
-66.581114 -37.115962  24.636217  -0.404514
-63.838516 -40.010483  25.611918   0.294650
-65.126125 -42.899777  22.187213   0.340046
-69.460163 -34.637440  23.234955   0.390519
-66.293645 -38.262236  16.267660   0.391150
-66.035328 -35.843201  26.144080   0.327535
-68.509679 -44.645601  31.301049  -0.393987
-71.676197 -39.469410  38.268344  -0.393114
-66.662596 -33.861743  38.371906  -0.400559
-69.213640 -43.026914  29.398308  -0.119500
-72.380158 -41.088097  36.365604  -0.119894
-65.958635 -35.480452  40.274647  -0.117939
-77.525964 -43.679400  41.653028  -0.321187
-74.359458 -40.435611  34.685761  -0.322802
-63.979347 -34.827944  41.954517  -0.316903
-71.662117 -36.469353  29.990389  -0.108765
-74.828635 -36.430323  36.957684  -0.109353
-69.747632 -35.783714  31.603513  -0.404863
-72.914150 -37.115962  38.570808  -0.403755
-65.424643 -42.723629  38.069442  -0.398772
-67.005034 -44.104528  32.579213   0.294343
-70.171552 -40.010483  39.546508   0.294596
-65.000723 -38.496861  30.126446   0.296144
-68.167241 -34.402815  37.093742   0.296114
-68.292643 -41.215234  29.154509   0.339727
-71.459161 -42.899777  36.121804   0.339521
-63.713114 -35.607566  33.551151   0.340855
-66.879632 -37.292110  40.518446   0.341161
-72.626681 -38.262236  30.202250   0.391323
-75.793199 -34.637440  37.169546   0.391543
-69.201846 -37.056475  33.111375   0.327958
-72.368364 -35.843201  40.078670   0.327419
-65.970429 -41.450868  36.561580   0.327433
-74.842715 -44.645601  45.235640  -0.393595
-78.009233 -39.469410  52.202935  -0.393559
-69.829113 -39.037934  45.339202  -0.400389
-72.995631 -33.861743  52.306497  -0.402360
-75.546676 -43.026914  43.332899  -0.118505
-78.713194 -41.088097  50.300195  -0.118638
-69.125153 -37.419224  47.241942  -0.118290
-63.926466 -41.088097  50.300195  -0.118042
-72.291671 -35.480452  54.209238  -0.115586
-83.859012 -43.679400  55.587647  -0.323931
-80.692482 -40.435611  48.620324  -0.324088
-69.072284 -43.679400  55.587647  -0.314261
-67.145865 -38.071732  48.921813  -0.314881
-65.905754 -40.435611  48.620324  -0.314835
-81.161671 -36.430323  50.892275  -0.108822
-77.995153 -36.469353  43.924980  -0.110069
-69.843194 -42.037991  53.617157  -0.121921
-66.374943 -36.430323  50.892275  -0.123466
-66.676676 -42.077020  46.649861  -0.123142
-79.247185 -37.115962  52.505399  -0.404410
-76.080668 -35.783714  45.538104  -0.402812
-71.757679 -42.723629  52.004033  -0.397474
-64.460458 -37.115962  52.505399  -0.398596
-68.591161 -41.391382  45.036737  -0.398266
-73.338070 -44.104528  46.513804   0.294788
-76.504588 -40.010483  53.481099   0.294755
-71.333759 -38.496861  44.061037   0.296237
-74.500277 -34.402815  51.028333   0.295818
-74.625679 -41.215234  43.089100   0.339381
-77.792197 -42.899777  50.056395   0.340143
-70.046150 -35.607566  47.485742   0.341053
-73.212668 -37.292110  54.453037   0.340988
-82.126235 -34.637440  51.104137   0.390623
-78.959717 -38.262236  44.136841   0.391252
-68.878630 -40.245107  53.405295   0.395078
-67.339507 -34.637440  51.104137   0.394842
-65.712112 -43.869904  46.438000   0.394798
-64.172989 -38.262236  44.136841   0.394775
-78.701399 -35.843201  54.013261   0.327643
-75.534882 -37.056475  47.045966   0.327141
-72.303465 -41.450868  50.496171   0.326861
-63.914672 -35.843201  54.013261   0.326969
-69.136947 -42.664143  43.528875   0.327040
-64.859892 -32.464065  13.783847  -0.323019
-65.343161 -28.254075  24.333753  -0.398955
-66.047122 -29.872784  22.431013  -0.117449
-68.026410 -29.220276  20.751142  -0.322770
-71.192940 -32.464065  27.718465  -0.322949
-68.495599 -25.214989  23.023093  -0.115164
-65.329081 -25.254018  16.055798  -0.110857
-66.581114 -25.900627  24.636217  -0.403439
-63.838516 -28.795148  25.611918   0.296448
-65.126125 -31.684442  22.187213   0.340490
-69.460163 -23.422105  23.234955   0.390789
-66.293645 -27.046901  16.267660   0.391891
-66.035328 -24.627866  26.144080   0.328831
-71.676197 -28.254075  38.268344  -0.393161
-68.509679 -33.430266  31.301049  -0.391969
-66.662596 -22.646408  38.371906  -0.400321
-72.380158 -29.872784  36.365604  -0.119798
-69.213640 -31.811557  29.398308  -0.119346
-65.958635 -24.265095  40.274647  -0.118489
-74.359458 -29.220276  34.685761  -0.323104
-77.525964 -32.464065  41.653028  -0.322906
-63.979347 -23.612609  41.954517  -0.313436
-71.662117 -25.254018  29.990389  -0.110000
-74.828635 -25.214989  36.957684  -0.109281
-69.747632 -24.568380  31.603513  -0.403777
-72.914150 -25.900627  38.570808  -0.403683
-65.424643 -31.508294  38.069442  -0.398412
-70.171552 -28.795148  39.546508   0.294551
-67.005034 -32.889194  32.579213   0.294342
-65.000723 -27.281526  30.126446   0.296291
-68.167241 -23.187480  37.093742   0.296110
-71.459161 -31.684442  36.121804   0.339438
-68.292643 -29.999899  29.154509   0.339732
-63.713114 -24.392232  33.551151   0.341076
-66.879632 -26.076775  40.518446   0.341128
-72.626681 -27.046901  30.202250   0.391097
-75.793199 -23.422105  37.169546   0.391505
-69.201846 -25.841141  33.111375   0.327882
-72.368364 -24.627866  40.078670   0.327369
-65.970429 -30.235533  36.561580   0.327435
-78.009233 -28.254075  52.202935  -0.398834
-74.842715 -33.430266  45.235640  -0.394560
-69.829113 -27.822599  45.339202  -0.400260
-72.995631 -22.646408  52.306497  -0.399817
-78.713194 -29.872784  50.300195  -0.117332
-75.546676 -31.811557  43.332899  -0.117866
-69.125153 -26.203912  47.241942  -0.118212
-63.926466 -29.872784  50.300195  -0.118306
-72.291671 -24.265095  54.209238  -0.122571
-80.692482 -29.220276  48.620324  -0.322656
-83.859012 -32.464065  55.587647  -0.322846
-67.145865 -26.856398  48.921813  -0.315170
-65.905754 -29.220276  48.620324  -0.314898
-69.072284 -32.464065  55.587647  -0.316773
-81.161671 -25.214989  50.892275  -0.115045
-77.995153 -25.254018  43.924980  -0.110732
-66.374943 -25.214989  50.892275  -0.122701
-66.676676 -30.861685  46.649861  -0.123377
-69.843194 -30.822656  53.617157  -0.122451
-79.247185 -25.900627  52.505399  -0.403317
-76.080668 -24.568380  45.538104  -0.404291
-64.460458 -25.900627  52.505399  -0.398582
-68.591161 -30.176047  45.036737  -0.398503
-71.757679 -31.508294  52.004033  -0.398695
-76.504588 -28.795148  53.481099   0.296571
-73.338070 -32.889194  46.513804   0.295155
-71.333759 -27.281526  44.061037   0.296347
-74.500277 -23.187480  51.028333   0.296927
-77.792197 -31.684442  50.056395   0.340606
-74.625679 -29.999899  43.089100   0.339204
-70.046150 -24.392232  47.485742   0.340899
-73.212668 -26.076775  54.453037   0.342044
-82.126235 -23.422105  51.104137   0.390909
-78.959717 -27.046901  44.136841   0.392011
-67.339507 -23.422105  51.104137   0.394725
-65.712112 -32.654569  46.438000   0.394855
-64.172989 -27.046901  44.136841   0.394618
-68.878630 -29.029773  53.405295   0.395287
-78.701399 -24.627866  54.013261   0.328956
-75.534882 -25.841141  47.045966   0.328239
-63.914672 -24.627866  54.013261   0.327005
-69.136947 -31.448808  43.528875   0.326992
-72.303465 -30.235533  50.496171   0.327673
-64.859892 -21.248730  13.783847  -0.321353
-65.343161 -17.038740  24.333753  -0.393722
-66.047122 -18.657427  22.431013  -0.118798
-71.192940 -21.248730  27.718465  -0.324069
-68.026410 -18.004941  20.751142  -0.324243
-68.495599 -13.999654  23.023093  -0.108978
-65.329081 -14.038683  16.055798  -0.110241
-66.581114 -14.685292  24.636217  -0.404571
-63.838516 -17.579813  25.611918   0.294588
-65.126125 -20.469108  22.187213   0.339982
-69.460163 -12.206770  23.234955   0.390469
-66.293645 -15.831567  16.267660   0.391086
-66.035328 -13.412531  26.144080   0.327480