%chk=naphthalene222.chk
%mem=2GB
%nproc=4
#wb97xd 6-311++g** opt td(nstates=1,root=1)

naphthalene222

0 1
     C   1.758238   0.114256   1.835565
     C   1.383454   0.986914   0.819134
     C   1.097522  -1.140337   1.993640
     H   2.571346   0.398715   2.520618
     C   0.334430   0.635395  -0.082076
     H   1.885270   1.956398   0.685839
     C   0.069095  -1.512687   1.133501
     H   1.396710  -1.820920   2.805984
     C  -0.334354  -0.635434   0.081958
     C  -0.069069   1.512709  -1.133531
     H  -0.442641  -2.479395   1.249936
     C  -1.383484  -0.986925  -0.819111
     C  -1.097557   1.140346  -1.993567
     H   0.442653   2.479424  -1.249932
     C  -1.758283  -0.114241  -1.835508
     H  -1.885277  -1.956423  -0.685867
     H  -1.396724   1.820909  -2.805950
     H  -2.571329  -0.398703  -2.520633

-21.547793 -17.576449  -2.203978   0.294280
-23.767511 -13.381981  -1.664822   0.327165
-21.288744 -16.605402   3.500398  -0.400382
-22.821884 -16.065451   2.203003   0.295764
-21.518752 -13.124612   5.670794   0.340481
-27.033564  -4.406370  -6.806128  -0.313370
-23.872406  -1.200713 -13.779527  -0.325345
-23.083838  -5.824168  -3.498363  -0.399297
-23.791809  -7.473383  -5.419024  -0.117796
-25.773892  -6.809435  -7.121829  -0.323123
-26.274860  -2.745985  -4.821341  -0.115514
-23.109898  -2.858609 -11.792565  -0.111174
-24.331301  -3.452932  -3.198463  -0.403783
-21.547410  -6.361158  -2.203589   0.296110
-22.844007  -9.305408  -5.671434   0.340144
-27.244805  -0.920196  -4.605383   0.390437
-24.076906  -4.685430 -11.572595   0.391562
-23.767509  -2.165860  -1.664236   0.328490
-21.288744  -5.390067   3.500398  -0.400804
-24.455144  -0.217645  10.467498  -0.400693
-23.740771  -1.863315  12.391056  -0.118865
-21.262144  -8.356994  11.792565  -0.124162
-27.499434  -2.154915   3.767439  -0.404152
-23.205486  -9.062215  10.165953  -0.398795
-24.714328 -10.461867   4.763289   0.293961
-22.821884  -4.850116   2.203003   0.295940
-25.988436  -0.757551   9.170243   0.295733
-26.010822  -7.518290   1.296057   0.339359
-21.518752  -1.909277   5.670794   0.340730
-24.685266  -3.698347  12.638145   0.340743
-26.934053  -3.441044   5.302530   0.327504
-23.766662  -7.775166   8.629942   0.327056
-21.751874  -1.200893  14.091689  -0.313806
-21.952038  -4.682110  16.297730   0.394234
-22.403937   4.685385 -16.296644   0.391075
-22.608570   1.200804 -14.089487  -0.321650
-26.537435   2.749126  -9.109377  -0.112163
-25.570434   0.922260  -9.329264   0.391713
-23.084354   5.391727  -3.498529  -0.394035
-23.792588   3.742668  -5.419330  -0.119115
-25.774995   4.406932  -7.122332  -0.324568
-26.276428   8.466231  -4.825241  -0.109303
-23.109898   8.356725 -11.792565  -0.110526
-24.332853   7.762626  -3.199996  -0.404888
-21.547793   4.854220  -2.203978   0.294280
-22.844291   1.910600  -5.671266   0.339667
-24.076906   6.529905 -11.572595   0.390788
-23.767511   9.048688  -1.664822   0.327165
-26.250875   0.215918   3.468709  -0.394400
-21.288744   5.825267   3.500398  -0.400382
-26.959092   1.864999   1.547939  -0.119909
-21.262144   2.858341  11.792565  -0.123185
-23.205486   2.153120  10.165953  -0.399180
-24.714328   0.753468   4.763289   0.293935
-22.821884   6.365219   2.203003   0.295764
-26.010822   3.697045   1.296057   0.339327
-21.518752   9.306058   5.670794   0.340481
-23.766662   3.440169   8.629942   0.327028
-21.751874  10.014442  14.091689  -0.317296
-21.952038   6.533225  16.297730   0.394368
-21.547410  16.069512  -2.203589   0.296110
-22.844007  13.125262  -5.671434   0.340144
-21.288744  17.040602   3.500398  -0.400804
-21.262144  14.073676  11.792565  -0.124162
-24.714328  11.968803   4.763289   0.293961
 -3.322690 -22.646565  -3.468598  -0.392045
 -2.614419 -24.295689  -1.547882  -0.121407
-11.477888 -25.180019  -4.825270  -0.123111
 -9.534425 -25.885217  -3.198798  -0.398989
 -6.367895 -24.583789 -10.166121  -0.398440
 -4.859115 -23.184117  -4.763317   0.293522
 -0.398343 -24.336783  -8.262683   0.335493
 -3.562638 -26.127782  -1.296112   0.338683
-12.452518 -23.356248  -4.604212   0.394313
 -8.973303 -24.598191  -1.662730   0.326597
 -5.806773 -25.870795  -8.630054   0.325382
 -9.655632 -22.646588  10.465852  -0.394429
 -5.780908 -26.173338   5.419413  -0.120190
 -0.631837 -23.631473   0.154869  -0.320688
 -3.798393 -26.837556   7.122249  -0.323775
-15.418720 -23.631630   0.156904  -0.317633
-12.700994 -24.583767   3.768611  -0.400291
-11.192180 -23.184137   9.171275   0.293997
 -6.729156 -24.341247   5.671183   0.339117
 -3.035911 -25.179728   9.109265  -0.109694
 -1.092513 -25.883422  10.734708  -0.404092
 -0.836468 -27.116054   2.362025   0.390705
 -4.002995 -23.352930   9.329403   0.391089
 -0.527103 -24.597293  12.269798   0.326961
 -1.951692 -17.040602 -17.435016  -0.400293
-11.789073 -11.432980 -17.401684  -0.400953
 -7.908233 -14.959687 -22.445309  -0.119351
 -2.666103 -18.686317 -19.358491  -0.119368
-11.074699 -13.078650 -15.478126  -0.118338
 -7.821685 -21.229709 -14.091522  -0.314855
 -5.919192 -15.622064 -20.744926  -0.316570
 -4.655172 -18.023940 -21.058874  -0.316163
 -8.596073 -19.572329 -16.076617  -0.123185
 -5.144726 -13.964618 -18.759945  -0.122787
 -0.034922 -13.368432 -24.100571  -0.399260
 -3.201457 -14.669905 -17.133305  -0.398642
-15.214808 -17.576449 -16.138653   0.294171
 -0.418523 -17.580554 -16.137621   0.295859
-13.322364 -11.972886 -18.698939   0.295714
 -8.852680 -13.124612 -22.198388   0.340481
-12.019194 -14.913682 -15.231037   0.340753
 -7.621424 -17.748603 -16.297787   0.394672
 -6.119439 -12.140936 -18.538635   0.394684
-17.434487 -13.381959 -15.599384   0.326992
 -2.640280 -13.382856 -15.597294   0.326581
 -0.156054 -16.607061 -10.436089  -0.393045
 -5.118206 -22.213047 -10.467665  -0.398957
-14.955607 -16.605313 -10.434417  -0.400822
 -8.284801 -17.040670  -3.500202  -0.401148
-18.122202 -11.432958  -3.466954  -0.402812
 -5.832603 -20.567332 -12.391168  -0.120419
-14.241247 -14.959687  -8.510831  -0.118722
 -8.999189 -18.686317  -5.423789  -0.118468
-17.407804 -13.078650  -1.543451  -0.116042
-14.154603 -21.229777  -0.157127  -0.314721
-12.252326 -15.622110  -6.810253  -0.315310
-10.988110 -18.023895  -7.124365  -0.315263
 -9.085803 -12.416227 -13.777493  -0.317296
 -0.130538 -19.572060  -2.142054  -0.109505
-14.929109 -19.572285  -2.142025  -0.122377
-11.477888 -13.964684  -4.825270  -0.123894
-11.762548 -19.681320  -9.109349  -0.123572
 -8.311329 -14.073697 -11.792593  -0.123742
 -2.074086 -20.275732  -3.767301  -0.404565
-21.166350 -13.370272 -10.167319  -0.403264
-16.872513 -20.277550  -3.768499  -0.397934
 -9.534425 -14.669882  -3.198798  -0.399022
-13.706011 -18.976122 -10.735822  -0.398698
 -6.367895 -13.368455 -10.166121  -0.398048
 -1.692643 -16.069555 -11.730640   0.293919
 -3.585037 -21.673118  -9.170271   0.296448
-16.488885 -16.065451 -11.731699   0.295802
 -6.751522 -17.580554  -2.202920   0.295965
-19.655371 -11.972886  -4.764349   0.295363
 -0.396145 -13.125935  -8.263352   0.338701
 -4.888160 -18.732257 -12.638145   0.339978
-15.185725 -13.124633  -8.263713   0.340620
 -8.054681 -20.521349  -5.670905   0.340551
-18.352248 -14.913725  -1.296475   0.340526
-13.954442 -17.748560  -2.363167   0.394629
-12.452518 -12.140913  -4.604212   0.394413
-10.787920 -21.505091  -9.330407   0.394369
 -9.285966 -15.897445 -11.571452   0.394368
 -2.639428 -18.989649  -5.302475   0.326441
-20.600980 -14.656356  -8.632145   0.326686
-17.433635 -18.990524  -5.304565   0.326404
 -8.973303 -13.382856  -1.662730   0.326543
-14.267133 -20.263148 -12.271888   0.326606
 -5.806773 -14.655460  -8.630054   0.325885
 -6.489191 -16.607152   3.498726  -0.393800
 -9.655632 -11.431253  10.465852  -0.394036
-11.451335 -22.213024   3.467065  -0.400025
-14.617764 -17.040602  10.434166  -0.400293
 -5.780908 -14.958003   5.419413  -0.120013
 -8.947388 -13.080334  12.386625  -0.119052
-12.165737 -20.567354   1.543507  -0.120340
-20.574305 -14.959687   5.423873  -0.119351
-15.332175 -18.686317   8.510691  -0.119368
 -3.798393 -15.622221   7.122249  -0.323678
-15.418720 -12.416295   0.156904  -0.316692
-18.585264 -15.622064   7.124256  -0.316570
-17.321244 -18.023940   6.810308  -0.316163
 -6.463617 -19.572106  11.792565  -0.110907
 -3.297113 -19.681611   4.825298  -0.110034
-14.644335 -14.073676   2.141997  -0.122815
-17.810798 -13.964618   9.109237  -0.122787
-18.095682 -19.681387   4.825326  -0.122904
 -8.407045 -20.275732  10.167123  -0.404392
 -5.240511 -18.977917   3.199856  -0.403904
-12.700994 -13.368432   3.768611  -0.399260
-15.867528 -14.669905  10.735877  -0.398642
-20.038949 -18.976099   3.198686  -0.398551
 -8.025598 -16.069555   2.204035   0.294103
-11.192180 -11.968803   9.171275   0.293970
 -9.918044 -21.673095   4.764320   0.295687
-13.084595 -17.580554  11.731561   0.295859
 -6.729156 -13.125912   5.671183   0.339056
 -9.895686 -14.912380  12.638506   0.339357
-11.221242 -18.732323   1.296418   0.340799
-14.387756 -20.521392   8.263770   0.340413
 -5.496553 -17.745285  11.572538   0.391075
 -2.330057 -21.508387   4.605160   0.391023
-15.618984 -15.897401   2.363167   0.394627
-18.785511 -12.140936   9.330547   0.394684
-17.120968 -21.505069   4.604017   0.394721
 -8.972427 -18.989626   8.632034   0.327535
 -5.805920 -20.264023   1.664765   0.326882
-12.139847 -14.655481   5.304620   0.327076
-15.306352 -13.382856  12.271888   0.326581
 -0.552116 -18.688001   8.515151  -0.120324
 -5.701186 -21.229866  13.779695  -0.321650
 -2.534659 -18.023783   6.812315  -0.323236
 -3.035911 -13.964393   9.109265  -0.109785
 -1.092513 -14.668087  10.734708  -0.404183
 -4.002995 -12.137595   9.329403   0.391110
 -0.527103 -13.381959  12.269798   0.326992
-12.822125 -16.607061  17.433093  -0.393045
-12.113935 -14.957982  19.353920  -0.121686
-10.131515 -15.622266  21.056895  -0.319208
 -6.965022 -12.416048  14.089655  -0.323878
-11.573657 -18.977961  17.134558  -0.404661
-14.358714 -16.069555  16.138542   0.293919
-13.062217 -13.125935  19.605830   0.338701
-12.138969 -20.264023  15.599384   0.327039
 -1.214818 -11.432958  24.402228  -0.402812
 -3.718646 -20.565650  15.482474  -0.118962
 -6.202513 -14.073944  16.076617  -0.110526
 -4.258966 -13.370272  17.701863  -0.403264
 -2.747987 -11.972886  23.104833   0.295363
 -2.770386 -18.733557  15.230676   0.338930
-10.336043 -12.137595  23.263827   0.390140
 -7.169522 -15.900765  16.296587   0.390788
 -3.693596 -14.656356  19.237036   0.326686
-16.751217  -5.823518 -17.433344  -0.393567
 -8.622672  -5.390067 -24.368784  -0.400804
 -1.951692  -5.825267 -17.435016  -0.397581
-11.789073  -0.217645 -17.401684  -0.400693
-17.459500  -7.472666 -19.354031  -0.120206
 -7.908233  -3.744352 -22.445309  -0.118149
 -2.666103  -7.470983 -19.358491  -0.123036
-11.074699  -1.863315 -15.478126  -0.118865
 -2.752649  -1.200961 -27.712278  -0.317633
 -5.919192  -4.406730 -20.744926  -0.316295
 -4.655172  -6.808605 -21.058874  -0.316455
 -7.821685 -10.014374 -14.091522  -0.314256
-19.943295  -2.749058 -18.759917  -0.109694
 -1.978263  -2.858341 -25.727185  -0.121007
 -5.144726  -2.749283 -18.759945  -0.123142
 -5.429610  -8.466052 -23.043855  -0.122586
 -8.596073  -8.356994 -16.076617  -0.124162
-17.999897  -3.452752 -17.134474  -0.404092
 -0.034922  -2.153097 -24.100571  -0.400291
 -3.201457  -3.454570 -17.133305  -0.396803
 -7.372877  -7.760764 -24.670496  -0.400284
-10.539414  -9.062215 -17.703229  -0.398795
-15.214808  -6.361114 -16.138653   0.294148
-12.048256 -10.461867 -23.105893   0.293961
-10.155813  -4.850116 -25.666179   0.295940
 -0.418523  -6.365219 -16.137621   0.295829
-13.322364  -0.757551 -18.698939   0.295733
-16.511250  -9.304758 -19.605801   0.339031
 -8.852680  -1.909277 -22.198388   0.340730
 -1.721684  -9.306058 -19.605412   0.339999
-12.019194  -3.698347 -15.231037   0.340743
-20.910379  -0.922260 -18.539779   0.391089
 -2.952912  -4.682066 -25.506015   0.395106
 -6.119439  -0.925601 -18.538635   0.394368
 -4.454897 -10.289734 -23.265165   0.395115
 -7.621424  -6.533268 -16.297787   0.394461
-14.267981  -3.441044 -22.566652   0.327504
-17.434487  -2.166624 -15.599384   0.326961
 -2.640280  -2.167521 -15.597294   0.326174
-11.100591  -7.775166 -19.239240   0.327056
-19.917748 -10.999439 -10.466021  -0.395003
-18.122202  -0.217623  -3.466954  -0.400255
 -5.118206 -10.997712 -10.467665  -0.401750
-20.626030  -9.350315 -12.386708  -0.118306
-17.407804  -1.863315  -1.543451  -0.123013
 -5.832603  -9.351997 -12.391168  -0.116796
 -9.085803  -1.200893 -13.777493  -0.313806
-14.154603 -10.014442  -0.157127  -0.317216
 -8.311329  -2.858362 -11.792593  -0.125559
-14.929109  -8.356950  -2.142025  -0.122890
-21.166350  -2.154938 -10.167319  -0.404728
 -6.367895  -2.153120 -10.166121  -0.398440
-16.872513  -9.062215  -3.768499  -0.399138
-18.381321 -10.461888  -9.171301   0.294716
-19.655371  -0.757551  -4.764349   0.296485
 -3.585037 -10.457783  -9.170271   0.296038
-19.677770  -7.518222 -12.638506   0.338771
-18.352248  -3.698390  -1.296475   0.341596
 -4.888160  -7.516922 -12.638145   0.339810
 -9.285966  -4.682110 -11.571452   0.394234
-13.954442  -6.533225  -2.363167   0.394855
-20.600980  -3.441021  -8.632145   0.327799
 -5.806773  -3.440125  -8.630054   0.325382
-17.433635  -7.775189  -5.304565   0.327233
 -9.655632  -0.215918  10.465852  -0.394429
-14.617764  -5.825267  10.434166  -0.397581
-11.451335 -10.997689   3.467065  -0.400746
 -8.947388  -1.864999  12.386625  -0.119379
-20.574305  -3.744352   5.423873  -0.118149
-15.332175  -7.470983   8.510691  -0.123036
-12.165737  -9.352020   1.543507  -0.118783
-15.418720  -1.200961   0.156904  -0.317633
-18.585264  -4.406730   7.124256  -0.316295
-17.321244  -6.808605   6.810308  -0.316455
-20.487757 -10.014374  13.777660  -0.314256
 -6.463617  -8.356771  11.792565  -0.110419
-14.644335  -2.858341   2.141997  -0.121007
-17.810798  -2.749283   9.109237  -0.123142
-18.095682  -8.466052   4.825326  -0.122586
 -8.407045  -9.060397  10.167123  -0.404583
-12.700994  -2.153097   3.768611  -0.400291
-15.867528  -3.454570  10.735877  -0.396803
-20.038949  -7.760764   3.198686  -0.400284
-11.192180  -0.753468   9.171275   0.293997
-13.084595  -6.365219  11.731561   0.295829
 -9.918044 -10.457761   4.764320   0.295645
 -9.895686  -3.697045  12.638506   0.339228
-14.387756  -9.306058   8.263770   0.339999
-11.221242  -7.516988   1.296418   0.340747
 -5.496553  -6.529950  11.572538   0.390992
-15.618984  -4.682066   2.363167   0.395106
-18.785511  -0.925601   9.330547   0.394368
-17.120968 -10.289734   4.604017   0.395115
-20.287495  -6.533268  11.571395   0.394461
 -8.972427  -7.774291   8.632034   0.327484
-12.139847  -3.440146   5.304620   0.327024
-15.306352  -2.167521  12.271888   0.326174
-20.600126  -9.047813   1.662675   0.326943
 -5.701186 -10.014531  13.779695  -0.323351
-12.804464  -5.396079  17.453186  -0.385427
-17.784277 -10.997712  17.401517  -0.401750
-12.108257  -3.735537  19.365181  -0.125643
-18.498675  -9.351997  15.478014  -0.116796
-10.126180  -4.406370  21.063054  -0.313370
 -6.965022  -1.200713  14.089655  -0.325345
 -9.625006  -8.471256  18.761784  -0.108828
-20.977400  -2.858362  16.076589  -0.125559
-11.567686  -7.769760  17.136064  -0.408306
-19.033966  -2.153120  17.703061  -0.398440
-14.339209  -4.860861  16.155096   0.296161
-16.251109 -10.457783  18.698910   0.296038
-13.064415  -1.906114  19.606499   0.335493
-17.554232  -7.516922  15.231037   0.339810
 -8.659726 -10.298234  18.539890   0.388308
-12.139641  -9.050236  15.597545   0.325933
-18.472844  -3.440125  19.239128   0.325382
 -6.176454  -5.824168  24.370819  -0.399297
 -3.010364 -10.999439  17.403161  -0.395003
 -1.214818  -0.217623  24.402228  -0.400255
 -6.884425  -7.473383  22.450158  -0.117796
 -3.718646  -9.350315  15.482474  -0.118306
 -0.500420  -1.863315  26.325731  -0.123013
 -8.866507  -6.809435  20.747353  -0.323123
 -9.367476  -2.745985  23.047841  -0.115514
 -6.202513  -2.858609  16.076617  -0.111174
 -7.423917  -3.452932  24.670719  -0.403783
 -4.258966  -2.154938  17.701863  -0.404728
 -4.640026  -6.361158  25.665593   0.296110
 -1.473937 -10.461888  18.697881   0.294716
 -2.747987  -0.757551  23.104833   0.296485
 -5.936623  -9.305408  22.197748   0.340144
 -2.770386  -7.518222  15.230676   0.338771
 -1.444864  -3.698390  26.572707   0.341596
-10.337421  -0.920196  23.263799   0.390437
 -7.169522  -4.685430  16.296587   0.391562
 -6.860125  -2.165860  26.204946   0.328490
 -3.693596  -3.441021  19.237036   0.327799
 -0.526251  -7.775189  22.564617   0.327233
 -1.488531   1.200893 -28.026309  -0.314721
-13.584804   0.215918 -24.400473  -0.394400
-16.751217   5.391817 -17.433344  -0.393541
 -8.622672   5.825267 -24.368784  -0.400382
 -1.951692   5.390067 -17.435016  -0.400293
-11.789073  10.997689 -17.401684  -0.400953
-17.459500   3.742668 -19.354031  -0.120324
 -7.908233   7.470983 -22.445309  -0.119351
 -2.666103   3.744352 -19.358491  -0.119368
-11.074699   9.352020 -15.478126  -0.118338
 -7.821685   1.200961 -14.091522  -0.314855
 -5.919192   6.808605 -20.744926  -0.316570
 -4.655172   4.406730 -21.058874  -0.316163
 -8.596073   2.858341 -16.076617  -0.123185
 -1.978263   8.356994 -25.727185  -0.122815
 -5.144726   8.466052 -18.759945  -0.122787
 -5.429610   2.749283 -23.043855  -0.122904
-17.999897   7.762582 -17.134474  -0.404183
-10.539414   2.153120 -17.703229  -0.399180
 -0.034922   9.062238 -24.100571  -0.399260
 -3.201457   7.760764 -17.133305  -0.398642
 -7.372877   3.454570 -24.670496  -0.398551
-12.048256   0.753468 -23.105893   0.293935
-15.214808   4.854220 -16.138653   0.294171
 -0.418523   4.850116 -16.137621   0.295859
-13.322364  10.457783 -18.698939   0.295714
-16.511250   1.910577 -19.605801   0.339092
 -8.852680   9.306058 -22.198388   0.340481
 -1.721684   1.909277 -19.605412   0.340413
-12.019194   7.516988 -15.231037   0.340753
 -7.621424   4.682066 -16.297787   0.394672
 -2.952912   6.533268 -25.506015   0.394627
 -6.119439  10.289734 -18.538635   0.394684
 -4.454897   0.925601 -23.265165   0.394721
-14.267981   7.774291 -22.566652   0.327556
-17.434487   9.048711 -15.599384   0.326992
-11.100591   3.440169 -19.239240   0.327028
 -2.640280   9.047813 -15.597294   0.326581
 -7.934084   2.167521 -26.206506   0.326441
-19.917748   0.215896 -10.466021  -0.394056
 -5.118206   0.217623 -10.467665  -0.398957
-18.122202  10.997712  -3.466954  -0.402812
-20.626030   1.865020 -12.386708  -0.118962
 -5.832603   1.863338 -12.391168  -0.120419
-17.407804   9.352020  -1.543451  -0.116042
-14.154603   1.200893  -0.157127  -0.314721
 -9.085803  10.014442 -13.777493  -0.317296
-14.929109   2.858384  -2.142025  -0.122377
 -8.311329   8.356973 -11.792593  -0.123742
-21.166350   9.060397 -10.167319  -0.403264
-16.872513   2.153120  -3.768499  -0.397934
 -6.367895   9.062215 -10.166121  -0.398048
-18.381321   0.753447  -9.171301   0.294331
 -3.585037   0.757551  -9.170271   0.296448
-19.655371  10.457783  -4.764349   0.295363
-19.677770   3.697113 -12.638506   0.338930
 -4.888160   3.698413 -12.638145   0.339978
-18.352248   7.516944  -1.296475   0.340526
-13.954442   4.682110  -2.363167   0.394629
 -9.285966   6.533225 -11.571452   0.394368
-20.600980   7.774314  -8.632145   0.326686
-17.433635   3.440146  -5.304565   0.326404
 -5.806773   7.775210  -8.630054   0.325885
 -9.655632  10.999417  10.465852  -0.394036
-11.451335   0.217645   3.467065  -0.400025
-14.617764   5.390067  10.434166  -0.400293
 -8.947388   9.350336  12.386625  -0.119052
-12.165737   1.863315   1.543507  -0.120340
-20.574305   7.470983   5.423873  -0.119351
-15.332175   3.744352   8.510691  -0.119368
-20.487757   1.200961  13.777660  -0.314855
-15.418720  10.014374   0.156904  -0.316692
-18.585264   6.808605   7.124256  -0.316570
-17.321244   4.406730   6.810308  -0.316163
 -6.463617   2.858564  11.792565  -0.110907
-14.644335   8.356994   2.141997  -0.122815
-17.810798   8.466052   9.109237  -0.122787
-18.095682   2.749283   4.825326  -0.122904
 -8.407045   2.154938  10.167123  -0.404392
-12.700994   9.062238   3.768611  -0.399260
-15.867528   7.760764  10.735877  -0.398642
-20.038949   3.454570   3.198686  -0.398551
-11.192180  10.461867   9.171275   0.293970
 -9.918044   0.757574   4.764320   0.295687
-13.084595   4.850116  11.731561   0.295859
 -9.895686   7.518290  12.638506   0.339357
-11.221242   3.698347   1.296418   0.340799
-14.387756   1.909277   8.263770   0.340413
 -5.496553   4.685385  11.572538   0.391075
-20.287495   4.682066  11.571395   0.394672
-15.618984   6.533268   2.363167   0.394627
-18.785511  10.289734   9.330547   0.394684
-17.120968   0.925601   4.604017   0.394721
 -8.972427   3.441044   8.632034   0.327535
-12.139847   7.775189   5.304620   0.327076
-15.306352   9.047813  12.271888   0.326581
-20.600156   2.167521   1.662675   0.326441
 -5.701186   1.200804  13.779695  -0.321650
-12.822125   5.823608  17.433093  -0.393045
-17.784277   0.217623  17.401517  -0.398957
-12.113935   7.472687  19.353920  -0.121686
-18.498675   1.863338  15.478014  -0.120419
-10.131515   6.808403  21.056895  -0.319208
 -6.965022  10.014622  14.089655  -0.323878
 -9.630051   2.749126  18.759805  -0.112163
-20.977400   8.356973  16.076589  -0.123742
-11.573657   3.452709  17.134558  -0.404661
-19.033966   9.062215  17.703061  -0.398048
-14.358714   6.361114  16.138542   0.293919
-16.251109   0.757551  18.698910   0.296448
-13.062217   9.304735  19.605830   0.338701
-17.554232   3.698413  15.231037   0.339978
 -8.663050   0.922260  18.539918   0.391713
-15.305499   3.441021  22.566707   0.326441
-12.138969   2.166646  15.599384   0.327039
-18.472844   7.775210  19.239128   0.325885
 -3.010364   0.215896  17.403161  -0.394056
 -6.176970   5.391727  24.370653  -0.394035
 -1.214818  10.997712  24.402228  -0.402812
 -3.718646   1.865020  15.482474  -0.118962
 -6.885203   3.742668  22.449852  -0.119115
 -0.500420   9.352020  26.325731  -0.116042
 -8.867611   4.406932  20.746850  -0.324568
 -9.369044   8.466231  23.043940  -0.109303
 -6.202513   8.356725  16.076617  -0.110526
 -7.425469   7.762626  24.669186  -0.404888
 -4.258966   9.060397  17.701863  -0.403264
 -1.473937   0.753447  18.697881   0.294331
 -4.640409   4.854220  25.665204   0.294280
 -2.747987  10.457783  23.104833   0.295363
 -2.770386   3.697113  15.230676   0.338930
 -5.936907   1.910600  22.197916   0.339667
 -1.444864   7.516944  26.572707   0.340526
-10.336043  10.293075  23.263827   0.390140
 -7.169522   6.529905  16.296587   0.390788
 -3.693596   7.774314  19.237036   0.326686
 -0.526251   3.440146  22.564617   0.326404
 -1.951692  16.605402 -17.435016  -0.397581
 -2.666103  14.959687 -19.358491  -0.123036
-11.074699  20.567354 -15.478126  -0.118865
 -5.919192  18.023940 -20.744926  -0.316295
 -4.655172  15.622064 -21.058874  -0.316455
 -7.821685  12.416295 -14.091522  -0.314256
 -5.144726  19.681387 -18.759945  -0.123142
 -5.429610  13.964618 -23.043855  -0.122586
 -8.596073  14.073676 -16.076617  -0.124162
 -3.201457  18.976099 -17.133305  -0.396803
-10.539414  13.368455 -17.703229  -0.398795
-15.214808  16.069555 -16.138653   0.294148
 -0.418523  16.065451 -16.137621   0.295829
 -1.721684  13.124612 -19.605412   0.339999
-12.019194  18.732323 -15.231037   0.340743
 -4.454897  12.140936 -23.265165   0.395115
 -7.621424  15.897401 -16.297787   0.394461
 -2.640280  20.263148 -15.597294   0.326174
-11.100591  14.655503 -19.239240   0.327056
 -0.138392  17.034591 -10.415996  -0.385427
 -3.322690  22.214774  -3.468598  -0.392045
-19.917748  11.431230 -10.466021  -0.395003
-14.955607  17.040691 -10.434417  -0.400674
 -8.284801  16.605334  -3.500202  -0.401115
 -5.118206  11.432958 -10.467665  -0.401750
 -2.614419  20.565650  -1.547882  -0.121407
-20.626030  13.080354 -12.386708  -0.118306
-14.241247  18.686317  -8.510831  -0.118625
 -8.999189  14.959687  -5.423789  -0.118711
-17.407804  20.567354  -1.543451  -0.123013
 -5.832603  13.078673 -12.391168  -0.116796
-12.252326  18.023895  -6.810253  -0.315580
-10.988110  15.622110  -7.124365  -0.315306
 -9.085803  21.229777 -13.777493  -0.313806
-14.154603  12.416227  -0.157127  -0.317216
-11.477888  19.681320  -4.825270  -0.123111
-11.762548  13.964684  -9.109349  -0.123786
 -8.311329  19.572308 -11.792593  -0.125559
-14.929109  14.073719  -2.142025  -0.122890
 -9.534425  18.976122  -3.198798  -0.398989
-13.706011  14.669882 -10.735822  -0.398915
 -6.367895  20.277550 -10.166121  -0.398440
-16.872513  13.368455  -3.768499  -0.399138
 -1.673137  17.569809 -11.714086   0.296161
 -4.859115  21.677223  -4.763317   0.293522
-18.381321  11.968782  -9.171301   0.294716
-16.488885  17.580554 -11.731699   0.295930
 -6.751522  16.065451  -2.202920   0.295757
 -3.585037  11.972886  -9.170271   0.296038
 -0.398343  20.524556  -8.262683   0.335493
 -3.562638  18.733557  -1.296112   0.338683
-19.677770  14.912448 -12.638506   0.338771
-15.185725  20.521372  -8.263713   0.340484
 -8.054681  13.124655  -5.670905   0.340618
-18.352248  18.732279  -1.296475   0.341596
 -4.888160  14.913748 -12.638145   0.339810
-12.452518  21.505091  -4.604212   0.394313
-10.787920  12.140913  -9.330407   0.394447
 -9.285966  17.748560 -11.571452   0.394234
-13.954442  15.897445  -2.363167   0.394855
 -8.973303  20.263148  -1.662730   0.326597
-14.267133  13.382856 -12.271888   0.326579
 -5.806773  18.990544  -8.630054   0.325382
-17.433635  14.655481  -5.304565   0.327233
 -6.489191  17.038852   3.498726  -0.393601
 -9.655632  22.214751  10.465852  -0.394429
-14.617764  16.605402  10.434166  -0.397581
-11.451335  11.432980   3.467065  -0.400746
 -5.780908  18.688001   5.419413  -0.120190
 -8.947388  20.565671  12.386625  -0.119379
-15.332175  14.959687   8.510691  -0.123036
-12.165737  13.078650   1.543507  -0.118783
 -0.631837  21.229866   0.154869  -0.320688
 -3.798393  18.023783   7.122249  -0.323775
-15.418720  21.229709   0.156904  -0.317633
-18.585264  18.023940   7.124256  -0.316295
-17.321244  15.622064   6.810308  -0.316455
-20.487757  12.416295  13.777660  -0.314256
 -3.297113  13.964393   4.825298  -0.109728
 -6.463617  14.073899  11.792565  -0.110419
-14.644335  19.572329   2.141997  -0.121007
-17.810798  19.681387   9.109237  -0.123142
-18.095682  13.964618   4.825326  -0.122586
 -5.240511  14.668087   3.199856  -0.404069
 -8.407045  13.370272  10.167123  -0.404583
-12.700994  20.277572   3.768611  -0.400291
-15.867528  18.976099  10.735877  -0.396803
-20.038949  14.669905   3.198686  -0.400284
 -8.025598  17.576449   2.204035   0.294128
-11.192180  21.677202   9.171275   0.293997
-13.084595  16.065451  11.731561   0.295829
 -9.918044  11.972909   4.764320   0.295645
 -6.729156  20.520092   5.671183   0.339117
 -9.895686  18.733625  12.638506   0.339228
-14.387756  13.124612   8.263770   0.339999
-11.221242  14.913682   1.296418   0.340747
 -2.330057  12.137617   4.605160   0.391076
 -5.496553  15.900720  11.572538   0.390992
-15.618984  17.748603   2.363167   0.395106
-17.120968  12.140936   4.604017   0.395115
-20.287495  15.897401  11.571395   0.394461
 -5.805920  13.381981   1.664765   0.326902
 -8.972427  14.656378   8.632034   0.327484
-12.139847  18.990524   5.304620   0.327024
-15.306352  20.263148  12.271888   0.326174
-20.600126  13.382856   1.662675   0.326943
 -0.552116  14.958003   8.515151  -0.120206
 -2.534659  15.622221   6.812315  -0.323517
 -5.701186  12.416138  13.779695  -0.323351
 -3.035911  19.681611   9.109265  -0.109694
 -1.092513  18.977917  10.734708  -0.404092
 -0.836468  17.745285   2.362025   0.390705
 -4.002995  21.508410   9.329403   0.391089
 -0.527103  20.264046  12.269798   0.326961
-12.804464  17.034591  17.453186  -0.385427
-17.784277  11.432958  17.401517  -0.401750
-18.498675  13.078673  15.478014  -0.116796
 -6.965022  21.229957  14.089655  -0.325345
 -9.625006  13.959413  18.761784  -0.108828
-11.567686  14.660910  17.136064  -0.408306
-14.339209  17.569809  16.155096   0.296161
-16.251109  11.972886  18.698910   0.296038
-17.554232  14.913748  15.231037   0.339810
 -8.659726  12.132436  18.539890   0.388308
-12.139641  13.380434  15.597545   0.325933
 -3.010364  11.431230  17.403161  -0.395003
 -6.884425  14.957287  22.450158  -0.117796
 -3.718646  13.080354  15.482474  -0.118306
 -8.866507  15.621235  20.747353  -0.323123
 -6.202513  19.572060  16.076617  -0.111174
 -4.258966  20.275732  17.701863  -0.404728
 -1.473937  11.968782  18.697881   0.294716
 -5.936623  13.125262  22.197748   0.340144
 -2.770386  14.912448  15.230676   0.338771
 -7.169522  17.745239  16.296587   0.391562
 -3.693596  18.989649  19.237036   0.327799
 -0.526251  14.655481  22.564617   0.327233
 -5.118206  22.648292 -10.467665  -0.398957
 -5.832603  24.294007 -12.391168  -0.120419
 -8.999189  26.175022  -5.423789  -0.118468
-14.154603  23.631562  -0.157127  -0.314721
 -0.130538  25.289279  -2.142054  -0.109505
 -2.074086  24.585607  -3.767301  -0.404565
 -3.585037  23.188221  -9.170271   0.296448
 -6.751522  27.280785  -2.202920   0.295965
 -8.054681  24.339990  -5.670905   0.340551
-10.787920  23.356248  -9.330407   0.394369
 -2.639428  25.871691  -5.302475   0.326441
-11.451335  22.648315   3.467065  -0.400025
-12.165737  24.293985   1.543507  -0.120340
 -3.297113  25.179728   4.825298  -0.110034
 -8.407045  24.585607  10.167123  -0.404392
 -5.240511  25.883422   3.199856  -0.403904
 -9.918044  23.188244   4.764320   0.295687
 -2.330057  23.352952   4.605160   0.391023
 -5.805920  24.597316   1.664765   0.326882
 -0.552116  26.173338   8.515151  -0.120324
 -5.701186  23.631473  13.779695  -0.321650
 -2.534659  26.837556   6.812315  -0.323236
  0.557815 -26.166206  -8.504001  -0.125643
  2.539892 -26.837040  -6.806128  -0.313370
  5.701050 -23.631383 -13.779527  -0.325345
 11.451254 -22.648292  -3.466954  -0.400255
 12.165652 -24.293985  -1.543451  -0.123013
  3.298596 -25.176655  -4.821341  -0.115514
  5.242155 -25.883601  -3.198463  -0.403783
  8.407106 -24.585607 -10.167319  -0.404728
  9.918085 -23.188221  -4.764349   0.296485
  2.328651 -23.350866  -4.605383   0.390437
  5.805947 -24.596530  -1.664236   0.328490