%chk=naphthalene222.chk
%mem=2GB
%nproc=4
#wb97xd 6-311++g** opt td(nstates=1,root=1)

naphthalene222

0 1
     C   1.758238   0.114256   1.835565
     C   1.383454   0.986914   0.819134
     C   1.097522  -1.140337   1.993640
     H   2.571346   0.398715   2.520618
     H   1.885270   1.956398   0.685839
     H   1.396710  -1.820920   2.805984
     C   0.334430   0.635395  -0.082076
     C   0.069095  -1.512687   1.133501
     H  -0.442641  -2.479395   1.249936
     C  -0.334354  -0.635434   0.081958
     C  -0.069069   1.512709  -1.133531
     H   0.442653   2.479424  -1.249932
     C  -1.383484  -0.986925  -0.819111
     H  -1.885277  -1.956423  -0.685867
     C  -1.097557   1.140346  -1.993567
     H  -1.396724   1.820909  -2.805950
     C  -1.758283  -0.114241  -1.835508
     H  -2.571329  -0.398703  -2.520633

 -3.322673 -11.431219  -3.468607  -0.392724
 -8.284804 -17.040678  -3.500202  -0.401148
 -2.614406 -13.080351  -1.547895  -0.120565
-11.477878 -13.964680  -4.825262  -0.123894
 -9.534416 -14.669873  -3.198800  -0.399022
 -6.367902 -13.368447 -10.166132  -0.398048
 -4.859107 -11.968774  -4.763306   0.294071
 -6.751519 -17.580548  -2.202927   0.295965
 -0.396132 -13.125937  -8.263350   0.338701
 -3.562657 -14.912436  -1.296101   0.338713
-12.452506 -12.140909  -4.604221   0.394413
 -8.973296 -13.382856  -1.662730   0.326543
 -5.806773 -14.655469  -8.630054   0.325885
 -6.489196 -16.607150   3.498735  -0.393800
 -9.655623 -11.431244  10.465849  -0.394036
 -5.780910 -14.957996   5.419415  -0.120013
 -0.631837 -12.416129   0.154878  -0.325587
 -3.798385 -15.622221   7.122243  -0.323678
-12.701005 -13.368439   3.768616  -0.399260
 -8.025615 -16.069546   2.204040   0.294103
-11.192174 -11.968793   9.171286   0.293970
 -6.729167 -13.125904   5.671174   0.339056
 -2.534650 -18.023778   6.812320  -0.323236
 -3.035920 -13.964383   9.109277  -0.109785
 -1.092515 -14.668089  10.734696  -0.404183
 -0.836470 -15.900712   2.362037   0.390909
 -4.002978 -12.137602   9.329394   0.391110
 -0.527114 -13.381968  12.269808   0.326992
 -1.951690  -5.825260 -17.435005  -0.397581
-11.074696  -1.863308 -15.478116  -0.118865
 -7.821695 -10.014370 -14.091526  -0.314256
 -3.201455  -3.454572 -17.133308  -0.396803
 -0.418535  -6.365221 -16.137617   0.295829
 -6.119430  -0.925592 -18.538647   0.394368
 -7.621420  -6.533274 -16.297793   0.394461
 -2.640278  -2.167514 -15.597286   0.326174
 -0.138402  -5.396067 -10.415984  -0.385427
-14.955615  -5.389988 -10.434417  -0.400674
 -8.284804  -5.825343  -3.500202  -0.401115
-18.122219  -0.217621  -3.466942  -0.400255
 -5.118200 -10.997710 -10.467674  -0.401750
-14.241234  -3.744343  -8.510833  -0.118625
 -8.999183  -7.470988  -5.423786  -0.118711
-17.407810  -1.863327  -1.543441  -0.123013
 -5.832605  -9.352004 -12.391177  -0.116796
-12.252316  -4.406767  -6.810259  -0.315580
-10.988103  -6.808566  -7.124360  -0.315306
 -9.085810  -1.200883 -13.777499  -0.313806
-14.154607 -10.014448  -0.157119  -0.317216
 -0.130521  -8.356727  -2.142061  -0.106745
-11.477878  -2.749345  -4.825262  -0.123111
-11.762539  -8.465986  -9.109356  -0.123786
 -8.311319  -2.858373 -11.792595  -0.125559
-14.929100  -8.356958  -2.142021  -0.122890
 -2.074082  -9.060393  -3.767295  -0.403807
 -9.534416  -3.454538  -3.198800  -0.398989
-13.706001  -7.760793 -10.735819  -0.398915
 -6.367902  -2.153114 -10.166134  -0.398440
-16.872515  -9.062219  -3.768484  -0.399138
 -1.673141  -4.860865 -11.714073   0.296161
 -6.751519  -6.365213  -2.202927   0.295757
 -3.585041 -10.457791  -9.170273   0.296038
 -0.398358  -1.906106  -8.262674   0.335493
-15.185717  -1.909307  -8.263721   0.340484
 -8.054700  -9.306024  -5.670896   0.340618
-18.352244  -3.698402  -1.296473   0.341596
 -4.888171  -7.516929 -12.638143   0.339810
-12.452506  -0.925575  -4.604219   0.394313
-10.787913 -10.289756  -9.330399   0.394447
 -9.285974  -4.682104 -11.571452   0.394234
-13.954443  -6.533227  -2.363167   0.394855
 -2.639426  -7.774316  -5.302477   0.325742
 -8.973296  -2.167521  -1.662730   0.326597
 -5.806773  -3.440135  -8.630054   0.325382
 -6.489196  -5.391815   3.498735  -0.393601
 -9.655623  -0.215911  10.465849  -0.394429
-14.617762  -5.825260  10.434177  -0.397581
-11.451331 -10.997684   3.467059  -0.400746
 -5.780910  -3.742661   5.419415  -0.120190
 -8.947384  -1.864995  12.386627  -0.119379
-15.332182  -7.470981   8.510700  -0.123036
-12.165723  -9.352023   1.543500  -0.118783
 -3.798385  -4.406888   7.122243  -0.323775
-15.418724  -1.200961   0.156910  -0.317633
 -3.297115  -8.466282   4.825287  -0.109728
 -6.463604  -8.356767  11.792557  -0.110419
-14.644331  -2.858330   2.141986  -0.121007
 -5.240518  -7.762577   3.199867  -0.404069
 -8.407049  -9.060407  10.167132  -0.404583
-12.701003  -2.153107   3.768616  -0.400291
-15.867526  -3.454572  10.735873  -0.396803
 -8.025615  -4.854211   2.204040   0.294128
-11.192174  -0.753460   9.171286   0.293997
-13.084606  -6.365221  11.731564   0.295829
 -9.918049 -10.457772   4.764319   0.295645
 -6.729167  -1.910570   5.671174   0.339117
 -9.895679  -3.697052  12.638518   0.339228
-14.387739  -9.306058   8.263762   0.339999
-11.221229  -7.516986   1.296420   0.340747
 -2.330057 -10.293063   4.605170   0.391076
 -5.496563  -6.529954  11.572527   0.390992
-15.618997  -4.682057   2.363174   0.395106
 -5.805920  -9.048698   1.664756   0.326902
 -8.972434  -7.774291   8.632023   0.327484
-12.139838  -3.440157   5.304629   0.327024
 -0.552125  -7.472670   8.515151  -0.120206
 -2.534650  -6.808445   6.812320  -0.323517
 -5.701197 -10.014535  13.779685  -0.323351
 -3.035920  -2.749051   9.109277  -0.109694
 -1.092515  -3.452754  10.734696  -0.404092
 -4.002978  -0.922268   9.329394   0.391089
 -0.527114  -2.166633  12.269808   0.326961
 -6.965014  -1.200721  14.089663  -0.325345
 -3.718627  -9.350315  15.482459  -0.118306
 -6.202513  -2.858602  16.076627  -0.111174
 -4.258953  -2.154940  17.701859  -0.404728
 -2.770376  -7.518228  15.230666   0.338771
 -7.169526  -4.685428  16.296593   0.391562
 -1.951690   5.390075 -17.435005  -0.400293
 -7.821695   1.200962 -14.091526  -0.314855
 -8.596086   2.858332 -16.076604  -0.123185
 -3.201455   7.760763 -17.133308  -0.398642
 -0.418535   4.850114 -16.137619   0.295859
 -7.621420   4.682061 -16.297793   0.394672
 -2.640278   9.047821 -15.597286   0.326581
 -0.156063   5.823616 -10.436085  -0.393045
 -3.322673  10.999451  -3.468607  -0.392724
 -5.118200   0.217625 -10.467674  -0.398957
-14.955615   5.825347 -10.434417  -0.400822
 -8.284804   5.389992  -3.500202  -0.401148
 -2.614406   9.350317  -1.547895  -0.120565
 -5.832607   1.863328 -12.391177  -0.120419
-14.241234   7.470990  -8.510833  -0.118722
 -8.999183   3.744347  -5.423786  -0.118468
-14.154607   1.200885  -0.157119  -0.314721
-12.252316   6.808567  -6.810259  -0.315310
-10.988103   4.406769  -7.124360  -0.315263
 -9.085808  10.014452 -13.777499  -0.317296
-14.929100   2.858377  -2.142021  -0.122377
-11.477878   8.465989  -4.825262  -0.123894
-11.762539   2.749349  -9.109354  -0.123572
 -8.311319   8.356962 -11.792595  -0.123742
-16.872515   2.153116  -3.768484  -0.397934
 -9.534416   7.760797  -3.198800  -0.399022
-13.706001   3.454542 -10.735819  -0.398698
 -6.367902   9.062221 -10.166132  -0.398048
 -1.692629   6.361116 -11.730652   0.293919
 -4.859107  10.461893  -4.763306   0.294071
 -3.585041   0.757544  -9.170273   0.296448
 -6.751519   4.850122  -2.202927   0.295965
 -0.396132   9.304733  -8.263350   0.338701
 -3.562657   7.518231  -1.296101   0.338713
 -4.888173   3.698404 -12.638145   0.339978
 -8.054700   1.909309  -5.670896   0.340551
-13.954443   4.682108  -2.363167   0.394629
-12.452506  10.289760  -4.604221   0.394413
-10.787913   0.925578  -9.330397   0.394369
 -9.285974   6.533229 -11.571450   0.394368
-17.433644   3.440138  -5.304565   0.326404
 -8.973296   9.047813  -1.662730   0.326543
-14.267121   2.167523 -12.271888   0.326606
 -5.806773   7.775198  -8.630054   0.325885
 -6.489196   5.823519   3.498735  -0.393800
 -9.655623  10.999424  10.465849  -0.394036
-11.451331   0.217651   3.467059  -0.400025
-14.617762   5.390075  10.434177  -0.400293
 -5.780910   7.472674   5.419415  -0.120013
 -8.947384   9.350340  12.386627  -0.119052
-12.165723   1.863311   1.543500  -0.120340
-15.332182   3.744354   8.510700  -0.119368
 -0.631837  10.014541   0.154878  -0.325587
 -3.798385   6.808447   7.122243  -0.323678
-15.418722  10.014374   0.156910  -0.316692
-17.321236   4.406722   6.810304  -0.316163
 -6.463604   2.858566  11.792557  -0.110907
 -3.297115   2.749052   4.825287  -0.110034
-14.644331   8.357005   2.141986  -0.122815
-18.095683   2.749283   4.825321  -0.122904
 -8.407049   2.154928  10.167132  -0.404392
 -5.240520   3.452758   3.199869  -0.403904
-12.701005   9.062228   3.768616  -0.399260
 -8.025615   6.361124   2.204040   0.294103
-11.192174  10.461875   9.171286   0.293970
 -9.918049   0.757563   4.764319   0.295687
-13.084606   4.850114  11.731563   0.295859
 -6.729167   9.304763   5.671174   0.339056
 -9.895677   7.518282  12.638518   0.339357
-11.221229   3.698349   1.296420   0.340799
-14.387739   1.909277   8.263762   0.340413
 -5.496563   4.685381  11.572527   0.391075
 -2.330057   0.922271   4.605172   0.391023
-15.618997   6.533276   2.363174   0.394627
-17.120989   0.925593   4.604030   0.394721
 -8.972434   3.441042   8.632023   0.327535
 -5.805920   2.166637   1.664756   0.326882
-12.139838   7.775177   5.304629   0.327076
 -0.552125   3.742665   8.515151  -0.120324
 -5.701197   1.200798  13.779685  -0.321650
 -2.534650   4.406890   6.812320  -0.323236
 -3.035920   8.466284   9.109277  -0.109785
 -1.092515   7.762581  10.734696  -0.404183
 -0.836470   6.529958   2.362037   0.390909
 -4.002978  10.293065   9.329394   0.391110
 -0.527114   9.048702  12.269808   0.326992
 -6.965014  10.014616  14.089665  -0.323878
 -3.010362   0.215888  17.403173  -0.394056
 -3.718627   1.865020  15.482459  -0.118962
 -6.202515   8.356733  16.076628  -0.110526
 -1.473928   0.753443  18.697869   0.294331
 -2.770376   3.697107  15.230666   0.338930
 -7.169526   6.529907  16.296593   0.390788
 -8.284804  16.605325  -3.500202  -0.401115
 -5.118200  11.432958 -10.467674  -0.401750
 -8.999183  14.959681  -5.423786  -0.118711
 -5.832605  13.078663 -12.391177  -0.116796
-14.154607  12.416220  -0.157119  -0.317216
 -0.130521  14.073940  -2.142061  -0.106745
 -2.074082  13.370276  -3.767295  -0.403807
 -6.751519  16.065456  -2.202927   0.295757
 -3.585041  11.972877  -9.170273   0.296038
 -3.562657  18.733566  -1.296101   0.338683
 -8.054700  13.124644  -5.670896   0.340618
-10.787913  12.140913  -9.330399   0.394447
 -2.639426  14.656354  -5.302477   0.325742
 -6.489196  17.038854   3.498735  -0.393601
-11.451331  11.432986   3.467059  -0.400746
-12.165723  13.078646   1.543500  -0.118783
 -3.297115  13.964387   4.825287  -0.109728
 -6.463604  14.073901  11.792557  -0.110419
 -5.240518  14.668093   3.199867  -0.404069
 -8.407049  13.370263  10.167132  -0.404583
 -8.025615  17.576459   2.204040   0.294128
 -9.918049  11.972898   4.764319   0.295645
-11.221229  14.913683   1.296420   0.340747
 -2.330057  12.137606   4.605170   0.391076
 -5.805920  13.381970   1.664756   0.326902
 -8.972434  14.656377   8.632023   0.327484
 -0.552125  14.957998   8.515151  -0.120206
 -2.534650  15.622225   6.812320  -0.323517
 -5.701197  12.416133  13.779685  -0.323351
 -0.836470  17.745290   2.362037   0.390705
  0.552155 -14.957990  -8.515275  -0.121686
  2.534570 -15.622259  -6.812292  -0.319208
  5.701058 -12.416053 -13.779517  -0.323878
  0.836493 -17.745238  -2.362029   0.390819
  6.489102 -17.038947  -3.498531  -0.394035
 11.451237 -11.432956  -3.466944  -0.402812
 12.165646 -13.078659  -1.543441  -0.116042
  3.297014 -13.964446  -4.825236  -0.109303
  6.463556 -14.073935 -11.792553  -0.110526
  5.240615 -14.668044  -3.199996  -0.404888
  8.407119 -13.370272 -10.167323  -0.403264
  8.025668 -17.576447  -2.203967   0.294280
  9.918078 -11.972875  -4.764345   0.295363
 11.221212 -14.913735  -1.296473   0.340526
  2.330017 -12.137589  -4.605357   0.390140
  5.805941 -13.381974  -1.664818   0.327165
  8.972464 -14.656350  -8.632142   0.326686
  8.284729 -16.605406   3.500387  -0.400382
  5.118296 -11.432982  10.467504  -0.400953
  8.999147 -14.959685   5.423863  -0.119351
  5.832688 -13.078642  12.391066  -0.118338
 14.154734 -12.416293   0.156910  -0.316692
  0.130571 -14.073899   2.142006  -0.109171
  2.074016 -13.370259   3.767433  -0.405261
  6.751571 -16.065445   2.203001   0.295764
  3.585014 -11.972894   9.170245   0.295714
  3.562644 -18.733613   1.296048   0.339327
  8.054706 -13.124608   5.670801   0.340481
 10.787954 -12.140926   9.330535   0.394684
  2.639399 -14.656375   5.302541   0.327556
  3.010449  -0.215911 -17.403333  -0.394429
  3.718688  -1.864995 -15.482555  -0.119379
  6.202468  -8.356767 -16.076625  -0.110419
  1.473899  -0.753460 -18.697896   0.293997
  2.770395  -3.697052 -15.230664   0.339228
  7.169509  -6.529954 -16.296655   0.390992
  6.964876 -10.014535 -14.089497  -0.323351
  0.557823  -3.735544  -8.503994  -0.125643
  2.539903  -4.406367  -6.806122  -0.313370
  5.701058  -1.200721 -13.779519  -0.325345
  3.041055  -8.471262  -9.107387  -0.108828
  1.098375  -7.769769 -10.733120  -0.408306
  4.006334 -10.298243  -9.329292   0.388308
  0.836493  -6.529903  -2.362027   0.390083
  0.526430  -9.050242 -12.271641   0.325933
  6.489614  -5.824170  -3.498367  -0.399297
  9.655712 -10.999447 -10.466009  -0.395003
 14.617841  -5.389988 -10.434417  -0.400674
 11.451237  -0.217621  -3.466942  -0.400255
  5.781645  -7.473377  -5.419016  -0.117796
  8.947444  -9.350315 -12.386723  -0.118306
 15.332222  -3.744343  -8.510833  -0.118625
 12.165646  -1.863327  -1.543441  -0.123013
  3.799576  -6.809433  -7.121837  -0.323123
  0.631981 -10.014612  -0.155101  -0.323340
 17.321140  -4.406767  -6.810259  -0.315580
 15.418849 -10.014448  -0.157119  -0.317216
  3.298600  -2.745987  -4.821352  -0.115514
  6.463560  -2.858602 -11.792555  -0.111174
 18.095578  -2.749345  -4.825262  -0.123111
 14.644356  -8.356958  -2.142021  -0.122890
  5.242157  -3.452936  -3.198477  -0.403783
  8.407121  -2.154940 -10.167323  -0.404728
 12.700941  -9.062219  -3.768484  -0.399138
  8.026039  -6.361165  -2.203600   0.296110
 11.192144 -10.461892  -9.171313   0.294716
 13.084555  -4.850118 -11.731691   0.295930
  9.918078  -0.757540  -4.764343   0.296485
  6.729443  -9.305408  -5.671442   0.340144
  9.895696  -7.518228 -12.638516   0.338771
 14.387739  -1.909307  -8.263721   0.340484
 11.221212  -3.698402  -1.296473   0.341596
  2.328660  -0.920202  -4.605387   0.390437
  5.496546  -4.685428 -11.572589   0.391562
 17.120951  -0.925575  -4.604219   0.394313
 15.619012  -6.533227  -2.363167   0.394855
  5.805962  -2.165866  -1.664246   0.328490
  8.972464  -3.441015  -8.632142   0.327799
 12.139811  -7.775196  -5.304565   0.327233
  0.156161  -5.823516  10.435828  -0.393567
  3.322588 -10.999422   3.468715  -0.392356
  8.284729  -5.390071   3.500387  -0.400804
 14.955694  -5.825260  10.434177  -0.397581
  5.118296  -0.217647  10.467504  -0.400693
  2.614349  -9.350338   1.547939  -0.119729
  8.999147  -3.744350   5.423863  -0.118149
 14.241274  -7.470981   8.510700  -0.123036
  5.832688  -1.863308  12.391066  -0.118865
 14.154732  -1.200961   0.156910  -0.317633
 10.988201  -4.406718   7.124259  -0.316295
 12.252220  -6.808613   6.810304  -0.316455
  9.085689 -10.014370  13.777656  -0.314256
 14.929124  -2.858330   2.141986  -0.121007
 11.762649  -2.749281   9.109245  -0.123142
 11.477772  -8.466052   4.825321  -0.122586
  8.311298  -8.357001  11.792578  -0.124162
 16.872453  -2.153107   3.768616  -0.400291
 13.705929  -3.454572  10.735873  -0.396803
  9.534493  -7.760761   3.198690  -0.400284
  6.367970  -9.062226  10.165947  -0.398795
  1.692580  -6.361120  11.730523   0.294148
  4.859139 -10.461873   4.763277   0.293961
  6.751571  -4.850110   2.203001   0.295940
  3.585014  -0.757559   9.170245   0.295733
  0.396132  -9.304761   8.263390   0.339031
  3.562644  -7.518279   1.296048   0.339359
  8.054706  -1.909273   5.670801   0.340730
  4.888196  -3.698347  12.638143   0.340743
 13.954459  -4.682057   2.363174   0.395106
 10.787954  -0.925592   9.330535   0.394368
 12.452468 -10.289741   4.604030   0.395115
  9.285964  -6.533274  11.571389   0.394461
 17.433618  -3.440157   5.304629   0.327024
 14.267104  -2.167514  12.271896   0.326174
  8.973317  -9.047817   1.662668   0.326943
  5.806803  -7.775174   8.629935   0.327056
  1.951769  -5.389988  17.434765  -0.400674
  7.821574  -1.200883  14.091683  -0.313806
  8.596065  -2.858373  16.076587  -0.125559
  3.201383  -7.760793  17.133363  -0.398915
  0.418484  -4.850118  16.137491   0.295930
  7.621410  -4.682104  16.297730   0.394234
  2.640261  -9.047810  15.597294   0.326579
  3.718688   9.350340 -15.482555  -0.119052
  6.202468   2.858566 -16.076625  -0.110907
  4.259023   2.154928 -17.702050  -0.404392
  2.770395   7.518282 -15.230664   0.339357
  7.169509   4.685381 -16.296655   0.391075
  6.964876   1.200798 -14.089497  -0.321650
  0.552155   7.472678  -8.515275  -0.121686
  2.534570   6.808409  -6.812292  -0.319208
  5.701058  10.014616 -13.779517  -0.323878
  3.036024   2.749115  -9.109383  -0.112163
  1.092424   3.452713 -10.734621  -0.404661
  4.003022   0.922258  -9.329264   0.391713
  0.527097   2.166643 -12.269800   0.327039
  9.655712   0.215888 -10.466009  -0.394056
  6.489102   5.391723  -3.498531  -0.394035
 14.617841   5.825347 -10.434417  -0.400822
 11.451237  10.997714  -3.466944  -0.402812
  8.947444   1.865020 -12.386723  -0.118962
  5.780882   3.742659  -5.419343  -0.119115
 15.332222   7.470990  -8.510833  -0.118722
 12.165646   9.352010  -1.543441  -0.116042
  3.798468   4.406928  -7.122326  -0.324568
 15.418849   1.200885  -0.157119  -0.314721
  3.297014   8.466222  -4.825236  -0.109303
  6.463556   8.356733 -11.792553  -0.110526
 14.644356   2.858377  -2.142021  -0.122377
  5.240615   7.762626  -3.199996  -0.404888
  8.407119   9.060397 -10.167323  -0.403264
 12.700941   2.153116  -3.768484  -0.397934
 15.867455   3.454542 -10.735819  -0.398698
 11.192146   0.753443  -9.171313   0.294331
  8.025668   4.854222  -2.203967   0.294280
 13.084555   6.365217 -11.731691   0.295802
  9.918078  10.457795  -4.764345   0.295363
  9.895696   3.697107 -12.638516   0.338930
  6.729171   1.910606  -5.671268   0.339667
 14.387739   9.306027  -8.263723   0.340620
 11.221212   7.516933  -1.296473   0.340526
  2.330017  10.293080  -4.605357   0.390140
  5.496546   6.529907 -11.572589   0.390788
 15.619012   4.682108  -2.363167   0.394629
  5.805941   9.048694  -1.664818   0.327165
  8.972464   7.774318  -8.632142   0.326686
 12.139811   3.440138  -5.304565   0.326404
  0.156161   5.391817  10.435828  -0.393541
 18.122125   0.217651   3.467059  -0.400025
  8.284729   5.825264   3.500387  -0.400382
 14.955694   5.390075  10.434177  -0.400293
  5.118296  10.997687  10.467504  -0.400953
 17.407733   1.863311   1.543500  -0.120340
  8.999147   7.470983   5.423863  -0.119351
 14.241274   3.744354   8.510700  -0.119368
  5.832688   9.352027  12.391066  -0.118338
  9.085687   1.200962  13.777656  -0.314855
 14.154734  10.014374   0.156910  -0.316692
 10.988203   6.808617   7.124259  -0.316570
 12.252220   4.406722   6.810304  -0.316163
  0.130571   8.356771   2.142006  -0.109171
  8.311298   2.858332  11.792578  -0.123185
 14.929124   8.357005   2.141986  -0.122815
 11.762649   8.466054   9.109245  -0.122787
 11.477772   2.749283   4.825321  -0.122904
  2.074016   9.060410   3.767433  -0.405261
  6.367970   2.153108  10.165949  -0.399180
 16.872451   9.062228   3.768616  -0.399260
 13.705929   7.760763  10.735873  -0.398642
  9.534493   3.454574   3.198692  -0.398551
  1.692580   4.854213  11.730523   0.294171
  6.751571   6.365225   2.203001   0.295764
  3.585014  10.457776   9.170245   0.295714
  0.396132   1.910573   8.263390   0.339092
 18.352227   3.698349   1.296420   0.340799
  8.054706   9.306060   5.670801   0.340481
 15.185717   1.909277   8.263762   0.340413
  4.888196   7.516988  12.638143   0.340753
  9.285962   4.682061  11.571389   0.394672
 13.954459   6.533276   2.363174   0.394627
 10.787954  10.289743   9.330535   0.394684
 12.452467   0.925593   4.604030   0.394721
  2.639399   7.774295   5.302541   0.327556
  5.806803   3.440161   8.629935   0.327028
  8.973317   2.167518   1.662668   0.326441
  1.951769   5.825347  17.434765  -0.400822
 11.074777   1.863328  15.478005  -0.120419
  7.821574  10.014452  14.091683  -0.317296
  3.201383   3.454542  17.133363  -0.398698
  0.418484   6.365217  16.137491   0.295802
  6.119471   0.925578  18.538785   0.394369
  7.621410   6.533229  16.297732   0.394368
  2.640261   2.167523  15.597294   0.326606
  2.539903  18.024303  -6.806122  -0.313370
  3.041055  13.959408  -9.107387  -0.108828
  1.098375  14.660901 -10.733120  -0.408306
  4.006334  12.132426  -9.329292   0.388308
  0.836493  15.900767  -2.362027   0.390083
  0.526430  13.380426 -12.271641   0.325933
  6.489614  16.606498  -3.498367  -0.399297
  9.655712  11.431223 -10.466009  -0.395003
  5.781645  14.957293  -5.419016  -0.117796
  3.799576  15.621235  -7.121837  -0.323123
  0.631981  12.416057  -0.155101  -0.323340
 12.700941  13.368451  -3.768484  -0.399138
  8.026039  16.069502  -2.203600   0.296110
 11.192144  11.968778  -9.171313   0.294716
  6.729443  13.125262  -5.671442   0.340144
  3.322588  11.431247   3.468715  -0.392356
  8.284729  17.040597   3.500387  -0.400804
  2.614349  13.080332   1.547939  -0.119729
 11.477772  13.964618   4.825321  -0.122586
  9.534493  14.669909   3.198690  -0.400284
  6.367970  13.368443  10.165947  -0.398795
  4.859139  11.968797   4.763277   0.293961
  6.751571  17.580559   2.203001   0.295940
  0.396132  13.125908   8.263390   0.339031
  3.562644  14.912389   1.296048   0.339359
 12.452468  12.140928   4.604030   0.395115
  8.973317  13.382852   1.662668   0.326943
  5.806803  14.655496   8.629935   0.327056
-64.848109 -43.660539  13.779686  -0.321298
-65.323883 -39.469615  24.370650  -0.393677
-66.032102 -41.118678  22.449839  -0.118753
-71.181003 -43.660616  27.714081  -0.324037
-68.014516 -40.454409  20.746857  -0.324201
-68.515970 -36.395115  23.043946  -0.108940
-65.349427 -36.504604  16.076629  -0.110190
-66.572370 -37.098713  24.669186  -0.404530
-63.787317 -40.007116  25.665215   0.294635
-65.083813 -42.950733  22.197914   0.340030
-69.482967 -34.568257  23.263826   0.390503
-66.316438 -38.331432  16.296593   0.391135
-66.007044 -35.812643  26.204364   0.327520
-68.490395 -44.645425  31.337897  -0.394004
-71.656822 -39.469520  38.305011  -0.393131
-63.528256 -39.036075  31.369569  -0.400020
-66.694687 -33.863651  38.336686  -0.400574
-69.198635 -42.996340  29.417120  -0.119517
-72.365108 -41.118674  36.384332  -0.119912
-65.980296 -35.509311  40.260247  -0.117955
-77.514181 -43.660539  41.648868  -0.321207
-74.347633 -40.454447  34.681503  -0.322821
-63.991410 -34.846887  41.960864  -0.316918
-71.682414 -36.504567  30.011188  -0.108782
-74.848905 -36.395053  36.978459  -0.109371
-69.738969 -35.800928  31.636615  -0.404879
-72.905499 -37.098758  38.603878  -0.403772
-65.445014 -42.708229  38.035130  -0.398788
-66.953845 -44.107875  32.632460   0.294326
-70.120403 -40.007124  39.599706   0.294578
-65.061412 -38.496114  30.072182   0.296129
-68.227970 -34.403563  37.039427   0.296097
-68.250341 -41.164282  29.165229   0.339710
-71.416852 -42.950764  36.132572   0.339503
-63.758279 -35.555278  33.539984   0.340840
-66.924789 -37.344349  40.507326   0.341145
-72.649455 -38.331380  30.231218   0.391306
-75.815963 -34.568272  37.198576   0.391525
-69.173585 -37.087043  33.171724   0.327941
-72.340098 -35.812636  40.138990   0.327401
-66.006181 -41.421177  36.499117   0.327416
-74.823345 -44.645450  45.272354  -0.393614
-77.989955 -39.469615  52.239832  -0.393578
-69.861215 -39.035991  45.303947  -0.400406
-73.027820 -33.863624  52.271420  -0.402378
-75.531612 -42.996318  43.351642  -0.118523
-78.698174 -41.118678  50.319021  -0.118657
-69.146835 -37.390347  47.227532  -0.118307
-63.904784 -41.116991  50.314578  -0.118058
-72.313412 -35.509328  54.194922  -0.115604
-83.847076 -43.660616  55.583263  -0.323951
-80.680588 -40.454409  48.616038  -0.324107
-69.060209 -43.660452  55.581245  -0.314279
-67.157916 -38.052770  48.928105  -0.314898
-65.893703 -40.454568  48.614005  -0.314851
-81.182042 -36.395115  50.913128  -0.108842
-78.015500 -36.504604  43.945811  -0.110088
-69.834700 -42.002961  53.596342  -0.121939
-66.383480 -36.395349  50.913101  -0.123483
-66.668139 -42.111989  46.629009  -0.123159
-79.238442 -37.098713  52.538368  -0.404429
-76.071937 -35.800941  45.571041  -0.402830
-71.778115 -42.708222  51.969879  -0.397492
-64.440017 -37.100541  52.539564  -0.398612
-68.611602 -41.406797  45.002546  -0.398283
-73.286912 -44.107894  46.567052   0.294769
-76.453389 -40.007116  53.534397   0.294735
-71.394501 -38.496122  44.006673   0.296220
-74.560979 -34.403544  50.974020   0.295800
-74.583361 -41.164231  43.099848   0.339362
-77.749886 -42.950733  50.067096   0.340124
-70.091318 -35.555311  47.474642   0.341036
-73.257844 -37.344404  54.441891   0.340970
-82.149039 -34.568257  51.133008   0.390603
-78.982511 -38.331432  44.165775   0.391233
-68.860045 -40.179230  53.375197   0.395060
-67.358106 -34.571578  51.134144   0.394825
-65.693513 -43.935760  46.407966   0.394782
-64.191574 -38.328108  44.166913   0.394759
-78.673116 -35.812643  54.073546   0.327623
-75.506593 -37.087019  47.106222   0.327122
-72.339245 -41.421199  50.433800   0.326843
-63.878897 -35.813524  54.075634   0.326952
-69.172723 -42.693814  43.466476   0.327022
-64.848109 -32.445204  13.779686  -0.323033
-65.323371 -28.254839  24.370816  -0.398969
-66.031339 -29.904045  22.450166  -0.117464
-68.013408 -29.240103  20.747345  -0.322785
-71.181004 -32.445280  27.714081  -0.322966
-68.514384 -25.176656  23.047829  -0.115179
-65.349425 -25.289271  16.076626  -0.110871
-66.570829 -25.883605  24.670706  -0.403454
-63.786946 -28.791835  25.665582   0.296434
-65.083541 -31.736077  22.197740   0.340475
-69.484324 -23.350871  23.263796   0.390774
-66.316438 -27.116098  16.296592   0.391877
-66.007021 -24.596535  26.204937   0.328816
-71.656822 -28.254185  38.305011  -0.393177
-68.490395 -33.430091  31.337897  -0.391985
-63.528256 -27.820740  31.369569  -0.400471
-66.694687 -22.648317  38.336687  -0.400336
-72.365109 -29.903339  36.384332  -0.119815
-69.198635 -31.781006  29.417120  -0.119362
-65.980296 -24.293977  40.260247  -0.118504
-74.347634 -29.239113  34.681503  -0.323121
-77.514181 -32.445204  41.648868  -0.322924
-63.991410 -23.631553  41.960864  -0.313450
-71.682414 -25.289233  30.011188  -0.110016
-74.848905 -25.179719  36.978459  -0.109298
-69.738969 -24.585594  31.636615  -0.403793
-72.905499 -25.883424  38.603878  -0.403700
-65.445014 -31.492894  38.035130  -0.398427
-70.120403 -28.791790  39.599706   0.294535
-66.953845 -32.892541  32.632460   0.294326
-65.061412 -27.280779  30.072182   0.296277
-68.227970 -23.188228  37.039427   0.296095
-71.416852 -31.735429  36.132572   0.339421
-68.250341 -29.948948  29.165229   0.339716
-63.758279 -24.339943  33.539984   0.341062
-66.924789 -26.129015  40.507326   0.341113
-72.649455 -27.116046  30.231218   0.391080
-75.815963 -23.352937  37.198576   0.391487
-69.173585 -25.871708  33.171724   0.327866
-72.340098 -24.597302  40.138990   0.327352
-66.006181 -30.205842  36.499117   0.327420
-77.989443 -28.254839  52.239998  -0.398853
-74.823346 -33.430115  45.272354  -0.394578
-69.861215 -27.820657  45.303947  -0.400276
-73.027820 -22.648289  52.271421  -0.399834
-78.697411 -29.904045  50.319347  -0.117351
-75.531612 -31.780983  43.351641  -0.117884
-69.146834 -26.175012  47.227532  -0.118228
-63.904784 -29.901657  50.314577  -0.118321
-72.313411 -24.293995  54.194922  -0.122589
-80.679480 -29.240103  48.616527  -0.322675
-83.847076 -32.445280  55.583263  -0.322866
-67.157916 -26.837435  48.928105  -0.315186
-65.893703 -29.239234  48.614005  -0.314914
-69.060209 -32.445117  55.581245  -0.316790
-81.180456 -25.176656  50.917011  -0.115064
-78.015497 -25.289271  43.945808  -0.110750
-66.383480 -25.180014  50.913101  -0.122717
-66.668139 -30.896655  46.629009  -0.123393
-69.834700 -30.787626  53.596342  -0.122468
-79.236901 -25.883605  52.539888  -0.403336
-76.071936 -24.585608  45.571041  -0.404309
-64.440017 -25.885207  52.539564  -0.398597
-68.611602 -30.191462  45.002546  -0.398520
-71.778115 -31.492887  51.969879  -0.398712
-76.453019 -28.791835  53.534764   0.296552
-73.286912 -32.892560  46.567052   0.295137
-71.394501 -27.280787  44.006673   0.296330
-74.560979 -23.188209  50.974020   0.296909
-77.749614 -31.736077  50.066922   0.340587
-74.583361 -29.948897  43.099847   0.339186
-70.091318 -24.339976  47.474642   0.340883
-73.257844 -26.129070  54.441891   0.342026
-82.150396 -23.350871  51.132978   0.390889
-78.982510 -27.116098  44.165774   0.391993
-67.358106 -23.356244  51.134144   0.394709
-65.693513 -32.720425  46.407965   0.394839
-64.191575 -27.112774  44.166913   0.394603
-68.860045 -28.963895  53.375197   0.395270
-78.673094 -24.596535  54.074119   0.328937
-75.506593 -25.871685  47.106222   0.328221
-63.878897 -24.598190  54.075634   0.326989
-69.172723 -31.478479  43.466476   0.326975
-72.339245 -30.205865  50.433800   0.327656
-64.848109 -21.229870  13.779686  -0.321366
-65.323883 -17.038947  24.370650  -0.393735
-66.032102 -18.688009  22.449839  -0.118811
-71.181003 -21.229947  27.714081  -0.324084
-68.014516 -18.023740  20.746857  -0.324257
-68.515970 -13.964446  23.043946  -0.108992
-65.349427 -14.073935  16.076629  -0.110253
-66.572370 -14.668044  24.669186  -0.404584
-63.787317 -17.576447  25.665215   0.294575
-65.083813 -20.520064  22.197914   0.339968
-69.482967 -12.137589  23.263826   0.390455
-66.316438 -15.900763  16.296593   0.391073
-66.007044 -13.381974  26.204364   0.327467