%chk=rl.chk
%mem=5GB
%nproc=1
#hf/STO-3G symmetry=none charge force

rl

0 1
XXX__POS__XXX
     C -1   1.397020   0.111006  -0.819642
     C -1   2.517088   0.285034  -1.705922
     C -1   0.214142   0.777890  -1.007752
     H -1   1.503016  -0.576352   0.017202
     C -1   3.808876  -0.377730  -1.438126
     O -1   2.419632   1.024996  -2.751970
     C -1  -0.986556   0.651464  -0.242525
     H -1   0.171273   1.472914  -1.853314
     C -1   4.045903  -1.200153  -0.316296
     C -1  -1.160550  -0.283514   0.808113
     C -1   6.142152  -0.756973  -2.099399
     C -1   5.281639  -1.785028  -0.085236
     H -1   3.245493  -1.397211   0.395094
     H -1  -0.336053  -0.936842   1.096227
     C -1   6.334781  -1.553487  -0.980365
     H -1   6.950152  -0.549903  -2.801071
     H -1   5.430460  -2.422904   0.785524
     H -1   7.312416  -1.999445  -0.790597


