%chk=XXX__NAME__XXX.chk
%mem=2GB
%nproc=4
#wb97xd 6-311++g** opt td(nstates=1,root=1)

XXX__NAME__XXX

0 1
XXX__POS__XXX

XXX__CHARGES__XXX

