168
C26 H16                                 
 C    4.018762    6.273052    6.408585
 C    5.782014    1.289248   11.077187
 C    0.881626    2.491902    2.334301
 C    8.919150    5.070399   15.151470
 C    4.976785    5.923952    7.393989
 C    4.823991    1.638348   10.091782
 C   -0.076397    2.142802    1.348896
 C    9.877173    5.419498   16.136875
 C    4.607692    5.428596    8.633099
 C    5.193084    2.133704    8.852672
 C    0.292696    1.647446    0.109787
 C    9.508080    5.914855   17.375985
 C    3.252635    5.226475    8.935180
 C    6.548141    2.335825    8.550592
 C   -0.691871    1.445325   17.293478
 C   10.492647    6.116975    0.192294
 C    2.294578    5.517167    7.979913
 C    7.506198    2.045133    9.505859
 C    2.605810    1.736017    0.762973
 C    7.194966    5.826283   16.722798
 C    2.643977    6.043120    6.718062
 C    7.156799    1.519180   10.767709
 C    2.256411    2.261970    2.024824
 C    7.544365    5.300330   15.460948
 C    1.635559    6.337892    5.718416
 C    8.165217    1.224408   11.767356
 C    3.264829    2.556742    3.024470
 C    6.535947    5.005559   14.461301
 C    0.277074    6.490576    6.060074
 C    9.523702    1.071725   11.425697
 C    4.623314    2.709426    2.682812
 C    5.177462    4.852875   14.802960
 C   -0.670754    6.845942    5.117523
 C   10.471530    0.716358   12.368248
 C    5.571142    3.064792    3.625362
 C    4.229634    4.497508   13.860409
 C   -0.270477    7.073609    3.794600
 C   10.071253    0.488691   13.691171
 C    5.170865    3.292459    4.948285
 C    4.629910    4.269841   12.537486
 C    1.056202    6.921585    3.429991
 C    8.744573    0.640715   14.055781
 C    3.844186    3.140435    5.312895
 C    5.956591    4.421865   12.172876
 C    2.041121    6.529968    4.367935
 C    7.759655    1.032332   13.117837
 C    2.859267    2.748818    4.374950
 C    6.941509    4.813482   13.110820
 C    3.455849    6.482576    4.026067
 C    6.344927    1.079724   13.459705
 C    1.444539    2.701426    4.716819
 C    8.356237    4.860874   12.768952
 C    3.927156    6.246364    2.670099
 C    5.873619    1.315936   14.815673
 C    0.973232    2.465214    6.072787
 C    8.827544    5.097086   11.412984
 C    3.112685    5.595016    1.711412
 C    6.688091    1.967284   15.774359
 C    1.787703    1.813866    7.031474
 C    8.013073    5.748434   10.454298
 C    3.588166    5.261028    0.455093
 C    6.212610    2.301272   17.030678
 C    1.312221    1.479878    8.287793
 C    8.488555    6.082423    9.197979
 C    4.914722    5.557038    0.109976
 C    4.886054    2.005263   17.375796
 C   -0.014334    1.775887    8.632910
 C    9.815110    5.786413    8.852862
 C    5.750023    6.150371    1.044404
 C    4.050753    1.411929   16.441367
 C   -0.849635    2.369221    7.698482
 C   10.650411    5.193079    9.787290
 C    5.290814    6.498122    2.333655
 C    4.509963    1.064178   15.152116
 C   -0.390426    2.716973    6.409231
 C   10.191201    4.845328   11.076541
 C    6.166229    7.084681    3.335739
 C    3.634547    0.477619   14.150032
 C   10.874559    3.303531    5.407146
 C   -1.073783    4.258769   12.078625
 C    7.423900    0.074191    3.001044
 C    2.376876    7.488109   14.484728
 C    9.616888    3.855341    5.741842
 C    0.183888    3.706959   11.743929
 C    8.237258    0.662365    3.956009
 C    1.563518    6.899935   13.529763
 C    8.803530    4.443516    4.786877
 C    0.997246    3.118785   12.698894
 C    7.795124    0.742190    5.285390
 C    2.005652    6.820111   12.200381
 C    9.245664    4.523339    3.457496
 C    0.555112    3.038960   14.028276
 C    6.565195    0.213673    5.639274
 C    3.235581    7.348627   11.846498
 C   10.475593    3.994823    3.103612
 C   -0.674817    3.567477   14.382159
 C    5.731381    7.124945    4.695520
 C    4.069395    0.437356   12.790251
 C   11.309407    3.343795    4.047366
 C   -1.508631    4.218506   13.438406
 C    4.401696    6.645645    5.050420
 C    5.399080    0.916656   12.435351
 C    0.498692    2.864495    3.692466
 C    9.302084    4.697806   13.793306
 H    6.035997    5.979992    7.155538
 H    3.764779    1.582308   10.330234
 H   11.004791    2.198842    1.587348
 H   -1.204015    5.363458   15.898423
 H    5.377640    5.149975    9.350140
 H    4.423135    2.412325    8.135632
 H    9.323523    1.368825   16.878517
 H    0.477253    6.193476    0.607254
 H    2.959207    4.804578    9.896785
 H    6.841569    2.757723    7.588986
 H   -0.398443    1.023427   16.331872
 H   10.199219    6.538873    1.153899
 H    1.249859    5.290791    8.187642
 H    8.550917    2.271509    9.298129
 H    3.650529    1.509641    0.555243
 H    6.150247    6.052660   16.930528
 H   -0.022196    6.388511    7.101046
 H    9.822972    1.173789   10.384725
 H    4.922584    2.607361    1.641840
 H    4.878192    4.954939   15.843932
 H   10.426989    6.977417    5.404971
 H   -0.626213    0.584883   12.080801
 H    6.613798    3.196267    3.337915
 H    3.186977    4.366033   14.147856
 H   11.144966    7.411492    3.054475
 H   -1.344191    0.150808   14.431296
 H    5.895821    3.630342    5.688411
 H    3.904955    3.931959   11.797361
 H    1.359704    7.193414    2.422186
 H    8.441072    0.368886   15.063585
 H    3.540684    3.412264    6.320699
 H    6.260092    4.150036   11.165072
 H    2.113851    5.273346    1.996144
 H    7.686925    2.288955   15.489628
 H    2.786538    1.492195    6.746742
 H    7.014239    6.070105   10.739029
 H    0.606742    4.720182   17.244733
 H    9.194034    2.842119    0.241038
 H    1.954022    0.939032    8.983924
 H    7.846754    6.623269    8.501847
 H    2.953661    5.289740   16.609859
 H    6.847114    2.272560    0.875912
 H   -0.392898    1.508590    9.618798
 H   10.193673    6.053710    7.866974
 H    6.791701    6.329380    0.781957
 H    3.009075    1.232920   16.703814
 H   10.249087    2.548230    7.960929
 H   -0.448311    5.014070    9.524843
 H    7.747381    0.080005    1.960115
 H    2.053395    7.482296   15.525656
 H    9.293407    3.861155    6.782770
 H    0.507369    3.701146   10.703001
 H    9.190380    1.109828    3.671568
 H    0.610396    6.452472   13.814204
 H    7.850407    4.890978    5.071318
 H    1.950368    2.671322   12.414453
 H    8.398219    1.262469    6.030460
 H    1.402557    6.299831   11.455311
 H    8.642569    5.043619    2.712425
 H    1.158207    2.518681   14.773346
 H    6.201382    0.371952    6.652131
 H    3.599394    7.190348   10.833641
 H   10.839406    4.153102    2.090755
 H   -1.038630    3.409198   15.395016

