 Entering Gaussian System, Link 0=g16
 Input=mono1.com
 Output=mono1.log
 Initial command:
 /shared/ucl/apps/gaussian/g16-a03/pgi-2016.5/g16/l1.exe "/tmpdir/job/132031.undefined/zccamin/gaussian.04be2a16/Gau-92720.inp" -scrdir="/tmpdir/job/132031.undefined/zccamin/gaussian.04be2a16/"
 Entering Link 1 = /shared/ucl/apps/gaussian/g16-a03/pgi-2016.5/g16/l1.exe PID=     92721.
  
 Copyright (c) 1988,1990,1992,1993,1995,1998,2003,2009,2016,
            Gaussian, Inc.  All Rights Reserved.
  
 This is part of the Gaussian(R) 16 program.  It is based on
 the Gaussian(R) 09 system (copyright 2009, Gaussian, Inc.),
 the Gaussian(R) 03 system (copyright 2003, Gaussian, Inc.),
 the Gaussian(R) 98 system (copyright 1998, Gaussian, Inc.),
 the Gaussian(R) 94 system (copyright 1995, Gaussian, Inc.),
 the Gaussian 92(TM) system (copyright 1992, Gaussian, Inc.),
 the Gaussian 90(TM) system (copyright 1990, Gaussian, Inc.),
 the Gaussian 88(TM) system (copyright 1988, Gaussian, Inc.),
 the Gaussian 86(TM) system (copyright 1986, Carnegie Mellon
 University), and the Gaussian 82(TM) system (copyright 1983,
 Carnegie Mellon University). Gaussian is a federally registered
 trademark of Gaussian, Inc.
  
 This software contains proprietary and confidential information,
 including trade secrets, belonging to Gaussian, Inc.
  
 This software is provided under written license and may be
 used, copied, transmitted, or stored only in accord with that
 written license.
  
 The following legend is applicable only to US Government
 contracts under FAR:
  
                    RESTRICTED RIGHTS LEGEND
  
 Use, reproduction and disclosure by the US Government is
 subject to restrictions as set forth in subparagraphs (a)
 and (c) of the Commercial Computer Software - Restricted
 Rights clause in FAR 52.227-19.
  
 Gaussian, Inc.
 340 Quinnipiac St., Bldg. 40, Wallingford CT 06492
  
  
 ---------------------------------------------------------------
 Warning -- This program may not be used in any manner that
 competes with the business of Gaussian, Inc. or will provide
 assistance to any competitor of Gaussian, Inc.  The licensee
 of this program is prohibited from giving any competitor of
 Gaussian, Inc. access to this program.  By using this program,
 the user acknowledges that Gaussian, Inc. is engaged in the
 business of creating and licensing software in the field of
 computational chemistry and represents and warrants to the
 licensee that it is not a competitor of Gaussian, Inc. and that
 it will not use this program in any manner prohibited above.
 ---------------------------------------------------------------
  

 Cite this work as:
 Gaussian 16, Revision A.03,
 M. J. Frisch, G. W. Trucks, H. B. Schlegel, G. E. Scuseria, 
 M. A. Robb, J. R. Cheeseman, G. Scalmani, V. Barone, 
 G. A. Petersson, H. Nakatsuji, X. Li, M. Caricato, A. V. Marenich, 
 J. Bloino, B. G. Janesko, R. Gomperts, B. Mennucci, H. P. Hratchian, 
 J. V. Ortiz, A. F. Izmaylov, J. L. Sonnenberg, D. Williams-Young, 
 F. Ding, F. Lipparini, F. Egidi, J. Goings, B. Peng, A. Petrone, 
 T. Henderson, D. Ranasinghe, V. G. Zakrzewski, J. Gao, N. Rega, 
 G. Zheng, W. Liang, M. Hada, M. Ehara, K. Toyota, R. Fukuda, 
 J. Hasegawa, M. Ishida, T. Nakajima, Y. Honda, O. Kitao, H. Nakai, 
 T. Vreven, K. Throssell, J. A. Montgomery, Jr., J. E. Peralta, 
 F. Ogliaro, M. J. Bearpark, J. J. Heyd, E. N. Brothers, K. N. Kudin, 
 V. N. Staroverov, T. A. Keith, R. Kobayashi, J. Normand, 
 K. Raghavachari, A. P. Rendell, J. C. Burant, S. S. Iyengar, 
 J. Tomasi, M. Cossi, J. M. Millam, M. Klene, C. Adamo, R. Cammi, 
 J. W. Ochterski, R. L. Martin, K. Morokuma, O. Farkas, 
 J. B. Foresman, and D. J. Fox, Gaussian, Inc., Wallingford CT, 2016.
 
 ******************************************
 Gaussian 16:  ES64L-G16RevA.03 25-Dec-2016
                27-Mar-2024 
 ******************************************
 %nprocshared=18
 Will use up to   18 processors via shared memory.
 %mem=1GB
 %chk=mono1.chk
 -----------------------------------------
 #p M062X/cc-pvdz nosymm scf=tight pop=ESP
 -----------------------------------------
 1/38=1,172=1/1;
 2/12=2,15=1,17=6,18=5,40=1/2;
 3/5=16,11=2,25=1,30=1,74=-55/1,2,3;
 4//1;
 5/5=2,32=2,38=5/2;
 6/7=2,8=2,9=2,10=2,15=8,28=1/1,2;
 99/5=1,9=1/99;
 Leave Link    1 at Wed Mar 27 20:31:28 2024, MaxMem=   134217728 cpu:               1.5 elap:               0.1
 (Enter /shared/ucl/apps/gaussian/g16-a03/pgi-2016.5/g16/l101.exe)
 ---------------
 cytosine monom1
 ---------------
 Symbolic Z-matrix:
 Charge =  0 Multiplicity = 1
 C                     8.91915   5.0704    15.15147 
 C                     9.87717   5.4195    16.13687 
 C                     7.54436   5.30033   15.46095 
 C                     9.30208   4.69781   13.79331 
 C                     9.50808   5.91486   17.37599 
 H                     10.93638   5.36346   15.89842 
 C                     7.19497   5.82628   16.7228 
 C                     6.53595   5.00556   14.4613 
 C                     8.35624   4.86087   12.76895 
 C                     10.63177   4.21851   13.43841 
 C                     8.15302   6.11698   17.67807 
 H                     10.27803   6.19348   18.09303 
 H                     6.15025   6.05266   16.93053 
 C                     5.17746   4.85288   14.80296 
 C                     6.94151   4.81348   13.11082 
 C                     8.82754   5.09709   11.41298 
 C                     11.06662   4.25877   12.07863 
 C                     11.46558   3.56748   14.38216 
 H                     7.8596    6.53887   18.63967 
 C                     4.22963   4.49751   13.86041 
 H                     4.87819   4.95494   15.84393 
 C                     5.95659   4.42187   12.17288 
 C                     8.01307   5.74843   10.4543 
 C                     10.1912   4.84533   11.07654 
 C                     12.32429   3.70696   11.74393 
 C                     12.69551   3.03896   14.02828 
 H                     11.10177   3.4092    15.39502 
 C                     4.62991   4.26984   12.53749 
 H                     3.18698   4.36603   14.14786 
 H                     6.26009   4.15004   11.16507 
 C                     8.48855   6.08242   9.19798 
 H                     7.01424   6.0701    10.73903 
 C                     10.65041   5.19308   9.78729 
 C                     13.13765   3.11878   12.69889 
 H                     12.64777   3.70115   10.703 
 H                     13.29861   2.51868   14.77335 
 H                     3.90496   3.93196   11.79736 
 C                     9.81511   5.78641   8.85286 
 H                     7.84675   6.62327   8.50185 
 H                     11.69209   5.01407   9.52484 
 H                     14.09077   2.67132   12.41445 
 H                     10.19367   6.05371   7.86697 
 
 ITRead=  0  0  0  0  0  0  0  0  0  0  0  0  0  0  0  0  0  0  0  0
 ITRead=  0  0  0  0  0  0  0  0  0  0  0  0  0  0  0  0  0  0  0  0
 ITRead=  0  0
 MicOpt= -1 -1 -1 -1 -1 -1 -1 -1 -1 -1 -1 -1 -1 -1 -1 -1 -1 -1 -1 -1
 MicOpt= -1 -1 -1 -1 -1 -1 -1 -1 -1 -1 -1 -1 -1 -1 -1 -1 -1 -1 -1 -1
 MicOpt= -1 -1
 NAtoms=     42 NQM=       42 NQMF=       0 NMMI=      0 NMMIF=      0
                NMic=       0 NMicF=      0.
                    Isotopes and Nuclear Properties:
 (Nuclear quadrupole moments (NQMom) in fm**2, nuclear magnetic moments (NMagM)
  in nuclear magnetons)

  Atom         1           2           3           4           5           6           7           8           9          10
 IAtWgt=          12          12          12          12          12           1          12          12          12          12
 AtmWgt=  12.0000000  12.0000000  12.0000000  12.0000000  12.0000000   1.0078250  12.0000000  12.0000000  12.0000000  12.0000000
 NucSpn=           0           0           0           0           0           1           0           0           0           0
 AtZEff=  -0.0000000  -0.0000000  -0.0000000  -0.0000000  -0.0000000  -0.0000000  -0.0000000  -0.0000000  -0.0000000  -0.0000000
 NQMom=    0.0000000   0.0000000   0.0000000   0.0000000   0.0000000   0.0000000   0.0000000   0.0000000   0.0000000   0.0000000
 NMagM=    0.0000000   0.0000000   0.0000000   0.0000000   0.0000000   2.7928460   0.0000000   0.0000000   0.0000000   0.0000000
 AtZNuc=   6.0000000   6.0000000   6.0000000   6.0000000   6.0000000   1.0000000   6.0000000   6.0000000   6.0000000   6.0000000

  Atom        11          12          13          14          15          16          17          18          19          20
 IAtWgt=          12           1           1          12          12          12          12          12           1          12
 AtmWgt=  12.0000000   1.0078250   1.0078250  12.0000000  12.0000000  12.0000000  12.0000000  12.0000000   1.0078250  12.0000000
 NucSpn=           0           1           1           0           0           0           0           0           1           0
 AtZEff=  -0.0000000  -0.0000000  -0.0000000  -0.0000000  -0.0000000  -0.0000000  -0.0000000  -0.0000000  -0.0000000  -0.0000000
 NQMom=    0.0000000   0.0000000   0.0000000   0.0000000   0.0000000   0.0000000   0.0000000   0.0000000   0.0000000   0.0000000
 NMagM=    0.0000000   2.7928460   2.7928460   0.0000000   0.0000000   0.0000000   0.0000000   0.0000000   2.7928460   0.0000000
 AtZNuc=   6.0000000   1.0000000   1.0000000   6.0000000   6.0000000   6.0000000   6.0000000   6.0000000   1.0000000   6.0000000

  Atom        21          22          23          24          25          26          27          28          29          30
 IAtWgt=           1          12          12          12          12          12           1          12           1           1
 AtmWgt=   1.0078250  12.0000000  12.0000000  12.0000000  12.0000000  12.0000000   1.0078250  12.0000000   1.0078250   1.0078250
 NucSpn=           1           0           0           0           0           0           1           0           1           1
 AtZEff=  -0.0000000  -0.0000000  -0.0000000  -0.0000000  -0.0000000  -0.0000000  -0.0000000  -0.0000000  -0.0000000  -0.0000000
 NQMom=    0.0000000   0.0000000   0.0000000   0.0000000   0.0000000   0.0000000   0.0000000   0.0000000   0.0000000   0.0000000
 NMagM=    2.7928460   0.0000000   0.0000000   0.0000000   0.0000000   0.0000000   2.7928460   0.0000000   2.7928460   2.7928460
 AtZNuc=   1.0000000   6.0000000   6.0000000   6.0000000   6.0000000   6.0000000   1.0000000   6.0000000   1.0000000   1.0000000

  Atom        31          32          33          34          35          36          37          38          39          40
 IAtWgt=          12           1          12          12           1           1           1          12           1           1
 AtmWgt=  12.0000000   1.0078250  12.0000000  12.0000000   1.0078250   1.0078250   1.0078250  12.0000000   1.0078250   1.0078250
 NucSpn=           0           1           0           0           1           1           1           0           1           1
 AtZEff=  -0.0000000  -0.0000000  -0.0000000  -0.0000000  -0.0000000  -0.0000000  -0.0000000  -0.0000000  -0.0000000  -0.0000000
 NQMom=    0.0000000   0.0000000   0.0000000   0.0000000   0.0000000   0.0000000   0.0000000   0.0000000   0.0000000   0.0000000
 NMagM=    0.0000000   2.7928460   0.0000000   0.0000000   2.7928460   2.7928460   2.7928460   0.0000000   2.7928460   2.7928460
 AtZNuc=   6.0000000   1.0000000   6.0000000   6.0000000   1.0000000   1.0000000   1.0000000   6.0000000   1.0000000   1.0000000

  Atom        41          42
 IAtWgt=           1           1
 AtmWgt=   1.0078250   1.0078250
 NucSpn=           1           1
 AtZEff=  -0.0000000  -0.0000000
 NQMom=    0.0000000   0.0000000
 NMagM=    2.7928460   2.7928460
 AtZNuc=   1.0000000   1.0000000
 Leave Link  101 at Wed Mar 27 20:31:28 2024, MaxMem=   134217728 cpu:               1.6 elap:               0.1
 (Enter /shared/ucl/apps/gaussian/g16-a03/pgi-2016.5/g16/l202.exe)
                          Input orientation:                          
 ---------------------------------------------------------------------
 Center     Atomic      Atomic             Coordinates (Angstroms)
 Number     Number       Type             X           Y           Z
 ---------------------------------------------------------------------
      1          6           0        8.919150    5.070399   15.151470
      2          6           0        9.877173    5.419498   16.136875
      3          6           0        7.544365    5.300330   15.460948
      4          6           0        9.302084    4.697806   13.793306
      5          6           0        9.508080    5.914855   17.375985
      6          1           0       10.936385    5.363458   15.898423
      7          6           0        7.194966    5.826283   16.722798
      8          6           0        6.535947    5.005559   14.461301
      9          6           0        8.356237    4.860874   12.768952
     10          6           0       10.631769    4.218506   13.438406
     11          6           0        8.153023    6.116975   17.678065
     12          1           0       10.278029    6.193476   18.093025
     13          1           0        6.150247    6.052660   16.930528
     14          6           0        5.177462    4.852875   14.802960
     15          6           0        6.941509    4.813482   13.110820
     16          6           0        8.827544    5.097086   11.412984
     17          6           0       11.066617    4.258769   12.078625
     18          6           0       11.465583    3.567477   14.382159
     19          1           0        7.859595    6.538873   18.639670
     20          6           0        4.229634    4.497508   13.860409
     21          1           0        4.878192    4.954939   15.843932
     22          6           0        5.956591    4.421865   12.172876
     23          6           0        8.013073    5.748434   10.454298
     24          6           0       10.191201    4.845328   11.076541
     25          6           0       12.324288    3.706959   11.743929
     26          6           0       12.695512    3.038960   14.028276
     27          1           0       11.101770    3.409198   15.395016
     28          6           0        4.629910    4.269841   12.537486
     29          1           0        3.186977    4.366033   14.147856
     30          1           0        6.260092    4.150036   11.165072
     31          6           0        8.488555    6.082423    9.197979
     32          1           0        7.014239    6.070105   10.739029
     33          6           0       10.650411    5.193079    9.787290
     34          6           0       13.137646    3.118785   12.698894
     35          1           0       12.647769    3.701146   10.703001
     36          1           0       13.298607    2.518681   14.773346
     37          1           0        3.904955    3.931959   11.797361
     38          6           0        9.815110    5.786413    8.852862
     39          1           0        7.846754    6.623269    8.501847
     40          1           0       11.692089    5.014070    9.524843
     41          1           0       14.090768    2.671322   12.414453
     42          1           0       10.193673    6.053710    7.866974
 ---------------------------------------------------------------------
                    Distance matrix (angstroms):
                    1          2          3          4          5
     1  C    0.000000
     2  C    1.417992   0.000000
     3  C    1.427823   2.431681   0.000000
     4  C    1.459477   2.518706   2.496726   0.000000
     5  C    2.451206   1.384558   2.810905   3.789358   0.000000
     6  H    2.170958   1.087166   3.420697   2.746916   2.127741
     7  C    2.452191   2.775430   1.411018   3.780917   2.405202
     8  C    2.481974   3.760676   1.450204   2.862244   4.260960
     9  C    2.457064   3.737407   2.845892   1.403752   4.864398
    10  C    2.567757   3.048529   3.846178   1.457307   4.432246
    11  C    2.840062   2.415457   2.439873   4.292521   1.402956
    12  H    3.429373   2.141553   3.898520   4.655865   1.088392
    13  H    3.434634   3.862740   2.160840   4.648857   3.390054
    14  C    3.764174   4.918097   2.497077   4.249230   5.148059
    15  C    2.853300   4.259388   2.474582   2.459976   5.098229
    16  C    3.739703   4.849826   4.251337   2.459786   6.057166
    17  C    3.835718   4.385369   4.993117   2.499292   5.764866
    18  C    3.055313   3.005338   4.420692   2.511000   4.278434
    19  H    3.930218   3.404057   3.426023   5.381222   2.168825
    20  C    4.897612   6.158495   3.767451   5.076847   6.498472
    21  H    4.101485   5.029060   2.715594   4.882828   4.970361
    22  C    4.250809   5.663879   3.755548   3.727501   6.474136
    23  C    4.831577   5.989553   5.048468   3.730193   7.083254
    24  C    4.274789   5.102476   5.141575   2.862360   6.426005
    25  C    5.006523   5.312169   6.261208   3.783575   6.672772
    26  C    4.432744   4.249257   5.805227   3.784486   5.444047
    27  H    2.753676   2.468056   4.029374   2.732189   3.569650
    28  C    5.086392   6.466149   4.254713   4.856897   7.064962
    29  H    5.861841   7.058662   4.645853   6.134355   7.264710
    30  H    4.879449   6.278028   4.628940   4.057263   7.227687
    31  C    6.054227   7.107461   6.381845   4.867856   8.243015
    32  H    4.908944   6.144625   4.813534   4.055373   7.091723
    33  C    5.637973   6.400499   6.469113   4.255754   7.708059
    34  C    5.255439   5.267227   6.608545   4.289823   6.547285
    35  H    5.963751   6.336870   7.158225   4.662287   7.699797
    36  H    5.082705   4.688300   6.428193   4.656314   5.716277
    37  H    6.139075   7.530707   5.342248   5.805111   8.151560
    38  C    6.402178   7.293512   7.004239   5.084904   8.529618
    39  H    6.912230   7.991578   7.090183   5.815921   9.056058
    40  H    6.273061   6.868570   7.247269   4.902237   8.198886
    41  H    6.323960   6.258057   7.684283   5.379532   7.492552
    42  H    7.460241   8.300220   8.078048   6.144495   9.534705
                    6          7          8          9         10
     6  H    0.000000
     7  C    3.859018   0.000000
     8  C    4.642980   2.494446   0.000000
     9  C    4.086972   4.232430   2.489666   0.000000
    10  C    2.730456   5.018346   4.294360   2.457407   0.000000
    11  C    3.388513   1.383803   3.767990   5.071339   5.265271
    12  H    2.436933   3.393763   5.348247   5.815055   5.068641
    13  H    4.944427   1.088961   2.709662   4.858545   5.970182
    14  C    5.884380   2.950190   1.409087   3.773839   5.658082
    15  C    4.902269   3.759839   1.423086   1.456219   3.752243
    16  C    4.963600   5.602782   3.814712   1.454846   2.851222
    17  C    3.978461   6.246209   5.173182   2.860986   1.428187
    18  C    2.409285   5.368330   5.135723   3.734079   1.417658
    19  H    4.285169   2.150329   4.643475   6.125983   6.334209
    20  C    7.062852   4.330370   2.436856   4.283943   6.422092
    21  H    6.072196   2.626611   2.159255   4.643398   6.279533
    22  C    6.290043   4.920137   2.431716   2.511242   4.847702
    23  C    6.191321   6.322140   4.334725   2.502628   4.254780
    24  C    4.906557   6.466832   4.984291   2.496315   2.483025
    25  C    4.682957   7.455911   6.524980   4.257654   2.448990
    26  C    3.463419   6.729459   6.480375   4.871814   2.449145
    27  H    2.024822   4.782094   4.926148   4.067128   2.168917
    28  C    7.229351   5.149647   2.806300   3.780001   6.069317
    29  H    8.007039   4.982633   3.423864   5.372848   7.479974
    30  H    6.763484   5.879805   3.416598   2.733413   4.927910
    31  C    7.169709   7.639495   5.716194   3.776445   5.103800
    32  H    6.519350   5.991461   3.900940   2.717312   4.878686
    33  C    6.120193   7.774466   6.229796   3.776758   3.778993
    34  C    4.485654   7.670580   7.088612   5.089367   2.834728
    35  H    5.717038   8.395667   7.292509   4.902078   3.437202
    36  H    3.865055   7.210758   7.212178   5.824988   3.432710
    37  H    8.264920   6.218727   3.895037   4.649815   6.930019
    38  C    7.146753   8.294735   6.543488   4.280268   4.914517
    39  H    8.114326   8.285170   6.312709   4.644760   6.157013
    40  H    6.427728   8.526099   7.138241   4.655708   4.131970
    41  H    5.416251   8.721680   8.167838   6.148549   3.925167
    42  H    8.095199   9.352518   7.613326   5.369210   5.882241
                   11         12         13         14         15
    11  C    0.000000
    12  H    2.166494   0.000000
    13  H    2.138705   4.290666   0.000000
    14  C    4.326447   6.215909   2.629133   0.000000
    15  C    4.901692   6.152976   4.092900   2.444740   0.000000
    16  C    6.383290   6.923072   6.206797   4.987452   2.553469
    17  C    6.579946   6.366944   7.136505   6.515912   4.288315
    18  C    5.323156   4.698583   6.397118   6.431935   4.861695
    19  H    1.090313   2.503386   2.465652   4.975618   5.864132
    20  C    5.708778   7.574591   3.941178   1.383136   2.831252
    21  H    3.929235   5.979183   2.000951   1.087935   3.427417
    22  C    6.164805   7.540663   5.033115   2.776716   1.415333
    23  C    7.234516   7.979865   6.745682   5.268166   3.013220
    24  C    7.025053   7.145354   7.214993   6.246906   3.834032
    25  C    7.643402   7.119056   8.397732   7.857984   5.662781
    26  C    6.590094   5.684838   7.768265   7.772483   6.090912
    27  H    4.608631   3.963585   5.819215   6.126350   4.949478
    28  C    6.499983   8.152646   4.978824   2.402522   2.442897
    29  H    6.339541   8.317868   4.401016   2.151327   3.920735
    30  H    7.061948   8.265349   6.072275   3.860091   2.165739
    31  C    8.486792   9.073940   8.078421   6.625024   4.394757
    32  H    7.032016   8.046664   6.251516   4.622871   2.685104
    33  C    8.327957   8.374049   8.486236   7.431410   4.994587
    34  C    7.656876   6.835772   8.679752   8.414196   6.436909
    35  H    8.642366   8.151063   9.302124   8.598932   6.292558
    36  H    6.918247   5.800714   8.260841   8.449990   6.960086
    37  H    7.576480   9.239368   5.990669   3.391310   3.423875
    38  C    8.986435   9.260702   8.874165   7.601509   5.228230
    39  H    9.195277   9.903864   8.616635   7.068482   5.033630
    40  H    8.956362   8.763807   9.307784   8.385992   5.955458
    41  H    8.650720   7.693421   9.740650   9.482150   7.495711
    42  H   10.021265  10.227354   9.924581   8.643627   6.293859
                   16         17         18         19         20
    16  C    0.000000
    17  C    2.481794   0.000000
    18  C    4.256167   2.437894   0.000000
    19  H    7.432406   7.650567   6.321293   0.000000
    20  C    5.243106   7.069377   7.314105   6.339174   0.000000
    21  H    5.937246   7.277279   6.888799   4.383351   2.136407
    22  C    3.045608   5.113497   5.996658   7.065591   2.415755
    23  C    1.416579   3.765856   5.666082   8.224881   5.242215
    24  C    1.426933   1.454159   3.766174   8.093541   6.588716
    25  C    3.777459   1.413595   2.777965   8.689330   8.404039
    26  C    5.102628   2.818221   1.384662   7.543238   8.592243
    27  H    4.886476   3.423661   1.087792   5.552868   7.125005
    28  C    4.423683   6.453051   7.114953   7.267463   1.400778
    29  H    6.311098   8.147512   8.320331   6.836007   1.089516
    30  H    2.747758   4.893780   6.147045   8.008406   3.392394
    31  C    2.447866   4.274370   6.485628   9.473619   6.510654
    32  H    2.165423   4.636510   6.272958   7.959554   4.468792
    33  C    2.444369   2.509259   4.941650   9.378936   7.635476
    34  C    4.913677   2.444066   2.414643   8.651453   9.088601
    35  H    4.128782   2.168715   3.866734   9.693813   9.025986
    36  H    6.158783   3.907839   2.147784   7.790588   9.327137
    37  H    5.073179   7.174630   7.998570   8.321801   2.163661
    38  C    2.829255   3.782263   6.182302  10.008589   7.611461
    39  H    3.430146   5.362063   7.550620  10.138182   6.805630
    40  H    3.431849   2.735598   5.073210  10.004654   8.645936
    41  H    5.881224   3.431947   3.400964   9.619709  10.132507
    42  H    3.918625   4.660670   7.088494  11.033326   8.597255
                   21         22         23         24         25
    21  H    0.000000
    22  C    3.863129   0.000000
    23  C    6.285322   2.990387   0.000000
    24  C    7.139194   4.394678   2.438653   0.000000
    25  C    8.591381   6.422044   4.941391   2.508257   0.000000
    26  C    8.250944   7.125166   6.483811   4.271683   2.408790
    27  H    6.428356   6.154718   6.278755   4.641210   3.861819
    28  C    3.385792   1.384245   4.239304   5.778711   7.755645
    29  H    2.466514   3.402121   6.232544   7.663019   9.471204
    30  H    4.944618   1.087048   2.476493   3.993105   6.107853
    31  C    7.646871   4.244798   1.384185   2.821064   5.180496
    32  H    5.645027   2.427186   1.087296   3.421561   5.898381
    33  C    8.370074   5.321441   2.776485   1.412081   2.973021
    34  C    9.026700   7.317258   6.181789   3.780809   1.385445
    35  H    9.400399   6.888529   5.072834   2.735582   1.090048
    36  H    8.830906   8.018089   7.551314   5.360562   3.396862
    37  H    4.285839   2.142482   4.688287   6.393021   8.422508
    38  C    8.598812   5.269977   2.411095   2.443734   4.356417
    39  H    8.093324   4.679247   2.145941   3.909802   6.250142
    40  H    9.293200   6.344976   3.865014   2.165388   2.651897
    41  H   10.091967   8.323917   7.088667   4.660787   2.154669
    42  H    9.648497   6.257521   3.397419   3.429506   5.007748
                   26         27         28         29         30
    26  C    0.000000
    27  H    2.131917   0.000000
    28  C    8.294062   7.126791   0.000000
    29  H    9.601441   8.069380   2.164394   0.000000
    30  H    7.130712   6.471716   2.134331   4.288087   0.000000
    31  C    7.091750   7.237285   5.415432   7.453456   3.545366
    32  H    7.230757   6.742889   3.487180   5.401101   2.106399
    33  C    5.177705   5.901910   6.682992   8.683397   4.718169
    34  C    1.403250   3.390900   8.586766  10.132667   7.121575
    35  H    3.390903   4.948773   8.244684  10.090376   6.420080
    36  H    1.090662   2.450630   9.122058  10.298010   8.075992
    37  H    9.113085   8.062912   1.089729   2.495744   2.448268
    38  C    6.529175   7.078589   6.539323   8.601546   4.545569
    39  H    8.179190   8.272917   5.672133   7.660682   3.965746
    40  H    5.018847   6.114166   7.713901   9.702017   5.739643
    41  H    2.164791   4.285128   9.595740  11.170022   8.066414
    42  H    7.301339   8.030535   7.480062   9.559891   5.474896
                   31         32         33         34         35
    31  C    0.000000
    32  H    2.132743   0.000000
    33  C    2.410776   3.859628   0.000000
    34  C    6.530973   7.074424   4.355051   0.000000
    35  H    5.023408   6.111459   2.655905   2.136051   0.000000
    36  H    8.180561   8.269317   6.247087   2.165499   4.288301
    37  H    5.691280   3.919105   7.150663   9.312175   8.814062
    38  C    1.402311   3.388655   1.386697   5.739987   3.974331
    39  H    1.090423   2.450317   3.399750   7.608558   6.036027
    40  H    3.392764   4.946892   1.089043   3.969426   2.006278
    41  H    7.305211   8.027206   5.009721   1.090675   2.464113
    42  H    2.163291   4.284597   2.153348   6.374026   4.427211
                   36         37         38         39         40
    36  H    0.000000
    37  H    9.954624   0.000000
    38  C    7.606902   6.858499   0.000000
    39  H    9.268336   5.800116   2.167479   0.000000
    40  H    6.029482   8.183811   2.138018   4.292161   0.000000
    41  H    2.493029  10.282062   6.377301   8.361464   4.426282
    42  H    8.356735   7.713478   1.089373   2.497096   2.464677
                   41         42
    41  H    0.000000
    42  H    6.878042   0.000000
 Symmetry turned off by external request.
 Stoichiometry    C26H16
 Framework group  C1[X(C26H16)]
 Deg. of freedom   120
 Full point group                 C1      NOp   1
 Rotational constants (GHZ):           0.2802382           0.2086258           0.1323531
 Leave Link  202 at Wed Mar 27 20:31:28 2024, MaxMem=   134217728 cpu:               0.2 elap:               0.0
 (Enter /shared/ucl/apps/gaussian/g16-a03/pgi-2016.5/g16/l301.exe)
 Standard basis: CC-pVDZ (5D, 7F)
 Ernie: Thresh=  0.10000D-02 Tol=  0.10000D-05 Strict=F.
 Ernie:  52 primitive shells out of 652 were deleted.
   444 basis functions,   970 primitive gaussians,   470 cartesian basis functions
    86 alpha electrons       86 beta electrons
       nuclear repulsion energy      2073.7516834664 Hartrees.
 IExCor= 4336 DFT=T Ex+Corr=M062X ExCW=0 ScaHFX=  0.540000
 ScaDFX=  1.000000  1.000000  1.000000  1.000000 ScalE2=  1.000000  1.000000
 IRadAn=      5 IRanWt=     -1 IRanGd=            0 ICorTp=0 IEmpDi=  4
 NAtoms=   42 NActive=   42 NUniq=   42 SFac= 1.00D+00 NAtFMM=   60 NAOKFM=F Big=F
 Integral buffers will be    131072 words long.
 Raffenetti 2 integral format.
 Two-electron integral symmetry is turned off.
 Leave Link  301 at Wed Mar 27 20:31:28 2024, MaxMem=   134217728 cpu:               0.9 elap:               0.1
 (Enter /shared/ucl/apps/gaussian/g16-a03/pgi-2016.5/g16/l302.exe)
 NPDir=0 NMtPBC=     1 NCelOv=     1 NCel=       1 NClECP=     1 NCelD=      1
         NCelK=      1 NCelE2=     1 NClLst=     1 CellRange=     0.0.
 One-electron integrals computed using PRISM.
 NBasis=   444 RedAO= T EigKep=  7.08D-05  NBF=   444
 NBsUse=   444 1.00D-06 EigRej= -1.00D+00 NBFU=   444
 Precomputing XC quadrature grid using
 IXCGrd= 4 IRadAn=           5 IRanWt=          -1 IRanGd=           0 AccXCQ= 0.00D+00.
 Generated NRdTot=       0 NPtTot=           0 NUsed=           0 NTot=          32
 NSgBfM=   469   469   469   469   469 MxSgAt=    42 MxSgA2=    42.
 Leave Link  302 at Wed Mar 27 20:31:29 2024, MaxMem=   134217728 cpu:               8.3 elap:               0.5
 (Enter /shared/ucl/apps/gaussian/g16-a03/pgi-2016.5/g16/l303.exe)
 DipDrv:  MaxL=1.
 Leave Link  303 at Wed Mar 27 20:31:29 2024, MaxMem=   134217728 cpu:               1.3 elap:               0.1
 (Enter /shared/ucl/apps/gaussian/g16-a03/pgi-2016.5/g16/l401.exe)
 ExpMin= 1.22D-01 ExpMax= 6.67D+03 ExpMxC= 2.28D+02 IAcc=3 IRadAn=         5 AccDes= 0.00D+00
 Harris functional with IExCor= 1009 and IRadAn=       5 diagonalized for initial guess.
 HarFok:  IExCor= 1009 AccDes= 0.00D+00 IRadAn=         5 IDoV= 1 UseB2=F ITyADJ=14
 ICtDFT=  3500011 ScaDFX=  1.000000  1.000000  1.000000  1.000000
 FoFCou: FMM=F IPFlag=           0 FMFlag=      100000 FMFlg1=           0
         NFxFlg=           0 DoJE=T BraDBF=F KetDBF=T FulRan=T
         wScrn=  0.000000 ICntrl=       500 IOpCl=  0 I1Cent=   200000004 NGrid=           0
         NMat0=    1 NMatS0=      1 NMatT0=    0 NMatD0=    1 NMtDS0=    0 NMtDT0=    0
 Symmetry not used in FoFCou.
 Harris En= -999.560216401604    
 JPrj=0 DoOrth=F DoCkMO=F.
 Leave Link  401 at Wed Mar 27 20:31:30 2024, MaxMem=   134217728 cpu:              24.0 elap:               1.4
 (Enter /shared/ucl/apps/gaussian/g16-a03/pgi-2016.5/g16/l502.exe)
 Two-electron integral symmetry not used.
 Closed shell SCF:
 Using DIIS extrapolation, IDIIS=  1040.
 NGot=   134217728 LenX=   133763728 LenY=   133542358
 Requested convergence on RMS density matrix=1.00D-08 within 128 cycles.
 Requested convergence on MAX density matrix=1.00D-06.
 Requested convergence on             energy=1.00D-06.
 No special actions if energy rises.
 Fock matrices will be formed incrementally for  20 cycles.
 Integral accuracy reduced to 1.0D-05 until final iterations.

 Cycle   1  Pass 0  IDiag  1:
 FoFJK:  IHMeth= 1 ICntrl=       0 DoSepK=F KAlg= 0 I1Cent=           0 FoldK=F
 IRaf= 820000000 NMat=       1 IRICut=       1 DoRegI=T DoRafI=F ISym2E= 0 IDoP0=0 IntGTp=1.
 FoFCou: FMM=F IPFlag=           0 FMFlag=      100000 FMFlg1=           0
         NFxFlg=           0 DoJE=F BraDBF=F KetDBF=F FulRan=T
         wScrn=  0.000000 ICntrl=         0 IOpCl=  0 I1Cent=           0 NGrid=           0
         NMat0=    1 NMatS0=      1 NMatT0=    0 NMatD0=    1 NMtDS0=    0 NMtDT0=    0
 Symmetry not used in FoFCou.
 E= -999.708714711610    
 DIIS: error= 3.59D-02 at cycle   1 NSaved=   1.
 NSaved= 1 IEnMin= 1 EnMin= -999.708714711610     IErMin= 1 ErrMin= 3.59D-02
 ErrMax= 3.59D-02  0.00D+00 EMaxC= 1.00D-01 BMatC= 3.98D-01 BMatP= 3.98D-01
 IDIUse=3 WtCom= 6.41D-01 WtEn= 3.59D-01
 Coeff-Com:  0.100D+01
 Coeff-En:   0.100D+01
 Coeff:      0.100D+01
 Gap=     0.209 Goal=   None    Shift=    0.000
 GapD=    0.209 DampG=1.000 DampE=0.500 DampFc=0.5000 IDamp=-1.
 Damping current iteration by 5.00D-01
 RMSDP=5.11D-03 MaxDP=1.46D-01              OVMax= 1.26D-01

 Cycle   2  Pass 0  IDiag  1:
 RMSU=  2.25D-03    CP:  9.29D-01
 E= -999.942929903285     Delta-E=       -0.234215191675 Rises=F Damp=T
 DIIS: error= 9.10D-03 at cycle   2 NSaved=   2.
 NSaved= 2 IEnMin= 2 EnMin= -999.942929903285     IErMin= 2 ErrMin= 9.10D-03
 ErrMax= 9.10D-03  0.00D+00 EMaxC= 1.00D-01 BMatC= 3.52D-02 BMatP= 3.98D-01
 IDIUse=3 WtCom= 9.09D-01 WtEn= 9.10D-02
 Coeff-Com: -0.195D+00 0.120D+01
 Coeff-En:   0.000D+00 0.100D+01
 Coeff:     -0.177D+00 0.118D+01
 Gap=     0.215 Goal=   None    Shift=    0.000
 RMSDP=1.84D-03 MaxDP=7.39D-02 DE=-2.34D-01 OVMax= 8.17D-02

 Cycle   3  Pass 0  IDiag  1:
 RMSU=  9.82D-04    CP:  8.78D-01  1.58D+00
 E= -1000.13586895769     Delta-E=       -0.192939054407 Rises=F Damp=F
 DIIS: error= 6.30D-03 at cycle   3 NSaved=   3.
 NSaved= 3 IEnMin= 3 EnMin= -1000.13586895769     IErMin= 3 ErrMin= 6.30D-03
 ErrMax= 6.30D-03  0.00D+00 EMaxC= 1.00D-01 BMatC= 1.56D-02 BMatP= 3.52D-02
 IDIUse=3 WtCom= 9.37D-01 WtEn= 6.30D-02
 Coeff-Com: -0.135D+00 0.537D+00 0.599D+00
 Coeff-En:   0.000D+00 0.000D+00 0.100D+01
 Coeff:     -0.127D+00 0.503D+00 0.624D+00
 Gap=     0.211 Goal=   None    Shift=    0.000
 RMSDP=5.19D-04 MaxDP=2.11D-02 DE=-1.93D-01 OVMax= 5.64D-02

 Cycle   4  Pass 0  IDiag  1:
 RMSU=  4.13D-04    CP:  8.82D-01  1.56D+00  6.91D-01
 E= -1000.14669565494     Delta-E=       -0.010826697244 Rises=F Damp=F
 DIIS: error= 4.13D-03 at cycle   4 NSaved=   4.
 NSaved= 4 IEnMin= 4 EnMin= -1000.14669565494     IErMin= 4 ErrMin= 4.13D-03
 ErrMax= 4.13D-03  0.00D+00 EMaxC= 1.00D-01 BMatC= 5.36D-03 BMatP= 1.56D-02
 IDIUse=3 WtCom= 9.59D-01 WtEn= 4.13D-02
 Coeff-Com: -0.432D-01 0.122D+00 0.389D+00 0.532D+00
 Coeff-En:   0.000D+00 0.000D+00 0.299D+00 0.701D+00
 Coeff:     -0.414D-01 0.117D+00 0.386D+00 0.539D+00
 Gap=     0.209 Goal=   None    Shift=    0.000
 RMSDP=2.27D-04 MaxDP=7.93D-03 DE=-1.08D-02 OVMax= 2.18D-02

 Cycle   5  Pass 0  IDiag  1:
 RMSU=  8.48D-05    CP:  8.80D-01  1.57D+00  7.82D-01  5.46D-01
 E= -1000.15303395951     Delta-E=       -0.006338304577 Rises=F Damp=F
 DIIS: error= 3.79D-04 at cycle   5 NSaved=   5.
 NSaved= 5 IEnMin= 5 EnMin= -1000.15303395951     IErMin= 5 ErrMin= 3.79D-04
 ErrMax= 3.79D-04  0.00D+00 EMaxC= 1.00D-01 BMatC= 7.76D-05 BMatP= 5.36D-03
 IDIUse=3 WtCom= 9.96D-01 WtEn= 3.79D-03
 Coeff-Com: -0.787D-02 0.143D-01 0.990D-01 0.191D+00 0.704D+00
 Coeff-En:   0.000D+00 0.000D+00 0.000D+00 0.000D+00 0.100D+01
 Coeff:     -0.784D-02 0.143D-01 0.986D-01 0.190D+00 0.705D+00
 Gap=     0.208 Goal=   None    Shift=    0.000
 RMSDP=3.38D-05 MaxDP=9.30D-04 DE=-6.34D-03 OVMax= 2.95D-03

 Cycle   6  Pass 0  IDiag  1:
 RMSU=  2.84D-05    CP:  8.80D-01  1.57D+00  7.81D-01  5.87D-01  9.13D-01
 E= -1000.15311588705     Delta-E=       -0.000081927540 Rises=F Damp=F
 DIIS: error= 1.39D-04 at cycle   6 NSaved=   6.
 NSaved= 6 IEnMin= 6 EnMin= -1000.15311588705     IErMin= 6 ErrMin= 1.39D-04
 ErrMax= 1.39D-04  0.00D+00 EMaxC= 1.00D-01 BMatC= 1.26D-05 BMatP= 7.76D-05
 IDIUse=3 WtCom= 9.99D-01 WtEn= 1.39D-03
 Coeff-Com: -0.152D-02 0.505D-03 0.274D-01 0.647D-01 0.361D+00 0.548D+00
 Coeff-En:   0.000D+00 0.000D+00 0.000D+00 0.000D+00 0.000D+00 0.100D+01
 Coeff:     -0.152D-02 0.505D-03 0.273D-01 0.646D-01 0.361D+00 0.548D+00
 Gap=     0.208 Goal=   None    Shift=    0.000
 RMSDP=1.13D-05 MaxDP=3.57D-04 DE=-8.19D-05 OVMax= 9.89D-04

 Cycle   7  Pass 0  IDiag  1:
 RMSU=  1.02D-05    CP:  8.80D-01  1.57D+00  7.80D-01  5.89D-01  9.56D-01
                    CP:  8.99D-01
 E= -1000.15313404518     Delta-E=       -0.000018158122 Rises=F Damp=F
 DIIS: error= 4.21D-05 at cycle   7 NSaved=   7.
 NSaved= 7 IEnMin= 7 EnMin= -1000.15313404518     IErMin= 7 ErrMin= 4.21D-05
 ErrMax= 4.21D-05  0.00D+00 EMaxC= 1.00D-01 BMatC= 5.69D-07 BMatP= 1.26D-05
 IDIUse=1 WtCom= 1.00D+00 WtEn= 0.00D+00
 Coeff-Com:  0.521D-03-0.166D-02-0.333D-02-0.341D-02 0.304D-01 0.165D+00
 Coeff-Com:  0.813D+00
 Coeff:      0.521D-03-0.166D-02-0.333D-02-0.341D-02 0.304D-01 0.165D+00
 Coeff:      0.813D+00
 Gap=     0.208 Goal=   None    Shift=    0.000
 RMSDP=5.19D-06 MaxDP=1.05D-04 DE=-1.82D-05 OVMax= 4.47D-04

 Initial convergence to 1.0D-05 achieved.  Increase integral accuracy.
 Cycle   8  Pass 1  IDiag  1:
 E= -1000.15310845225     Delta-E=        0.000025592921 Rises=F Damp=F
 DIIS: error= 4.63D-04 at cycle   1 NSaved=   1.
 NSaved= 1 IEnMin= 1 EnMin= -1000.15310845225     IErMin= 1 ErrMin= 4.63D-04
 ErrMax= 4.63D-04  0.00D+00 EMaxC= 1.00D-01 BMatC= 1.90D-05 BMatP= 1.90D-05
 IDIUse=3 WtCom= 9.95D-01 WtEn= 4.63D-03
 Coeff-Com:  0.100D+01
 Coeff-En:   0.100D+01
 Coeff:      0.100D+01
 Gap=     0.208 Goal=   None    Shift=    0.000
 RMSDP=5.19D-06 MaxDP=1.05D-04 DE= 2.56D-05 OVMax= 4.47D-04

 Cycle   9  Pass 1  IDiag  1:
 RMSU=  3.15D-04    CP:  1.00D+00
 E= -1000.15312308739     Delta-E=       -0.000014635134 Rises=F Damp=F
 DIIS: error= 3.39D-05 at cycle   2 NSaved=   2.
 NSaved= 2 IEnMin= 2 EnMin= -1000.15312308739     IErMin= 2 ErrMin= 3.39D-05
 ErrMax= 3.39D-05  0.00D+00 EMaxC= 1.00D-01 BMatC= 4.76D-07 BMatP= 1.90D-05
 IDIUse=1 WtCom= 1.00D+00 WtEn= 0.00D+00
 Coeff-Com:  0.199D-01 0.980D+00
 Coeff:      0.199D-01 0.980D+00
 Gap=     0.208 Goal=   None    Shift=    0.000
 RMSDP=1.01D-05 MaxDP=1.71D-04 DE=-1.46D-05 OVMax= 4.90D-04

 Cycle  10  Pass 1  IDiag  1:
 RMSU=  5.11D-06    CP:  1.00D+00  1.03D+00
 E= -1000.15312241211     Delta-E=        0.000000675275 Rises=F Damp=F
 DIIS: error= 4.87D-05 at cycle   3 NSaved=   3.
 NSaved= 3 IEnMin= 2 EnMin= -1000.15312308739     IErMin= 2 ErrMin= 3.39D-05
 ErrMax= 4.87D-05  0.00D+00 EMaxC= 1.00D-01 BMatC= 1.08D-06 BMatP= 4.76D-07
 IDIUse=1 WtCom= 1.00D+00 WtEn= 0.00D+00
 Coeff-Com: -0.125D-01 0.609D+00 0.404D+00
 Coeff:     -0.125D-01 0.609D+00 0.404D+00
 Gap=     0.208 Goal=   None    Shift=    0.000
 RMSDP=2.76D-06 MaxDP=8.98D-05 DE= 6.75D-07 OVMax= 2.91D-04

 Cycle  11  Pass 1  IDiag  1:
 RMSU=  1.42D-06    CP:  1.00D+00  1.03D+00  5.44D-01
 E= -1000.15312363635     Delta-E=       -0.000001224234 Rises=F Damp=F
 DIIS: error= 2.16D-06 at cycle   4 NSaved=   4.
 NSaved= 4 IEnMin= 4 EnMin= -1000.15312363635     IErMin= 4 ErrMin= 2.16D-06
 ErrMax= 2.16D-06  0.00D+00 EMaxC= 1.00D-01 BMatC= 4.05D-09 BMatP= 4.76D-07
 IDIUse=1 WtCom= 1.00D+00 WtEn= 0.00D+00
 Coeff-Com: -0.580D-02 0.261D+00 0.179D+00 0.565D+00
 Coeff:     -0.580D-02 0.261D+00 0.179D+00 0.565D+00
 Gap=     0.208 Goal=   None    Shift=    0.000
 RMSDP=2.17D-07 MaxDP=9.37D-06 DE=-1.22D-06 OVMax= 1.97D-05

 Cycle  12  Pass 1  IDiag  1:
 RMSU=  1.95D-07    CP:  1.00D+00  1.03D+00  5.55D-01  1.01D+00
 E= -1000.15312364047     Delta-E=       -0.000000004119 Rises=F Damp=F
 DIIS: error= 1.04D-06 at cycle   5 NSaved=   5.
 NSaved= 5 IEnMin= 5 EnMin= -1000.15312364047     IErMin= 5 ErrMin= 1.04D-06
 ErrMax= 1.04D-06  0.00D+00 EMaxC= 1.00D-01 BMatC= 3.40D-10 BMatP= 4.05D-09
 IDIUse=1 WtCom= 1.00D+00 WtEn= 0.00D+00
 Coeff-Com:  0.244D-03-0.184D-01-0.104D-01 0.178D+00 0.851D+00
 Coeff:      0.244D-03-0.184D-01-0.104D-01 0.178D+00 0.851D+00
 Gap=     0.208 Goal=   None    Shift=    0.000
 RMSDP=1.14D-07 MaxDP=2.52D-06 DE=-4.12D-09 OVMax= 1.34D-05

 Cycle  13  Pass 1  IDiag  1:
 RMSU=  7.76D-08    CP:  1.00D+00  1.03D+00  5.59D-01  1.05D+00  8.80D-01
 E= -1000.15312364092     Delta-E=       -0.000000000453 Rises=F Damp=F
 DIIS: error= 8.22D-07 at cycle   6 NSaved=   6.
 NSaved= 6 IEnMin= 6 EnMin= -1000.15312364092     IErMin= 6 ErrMin= 8.22D-07
 ErrMax= 8.22D-07  0.00D+00 EMaxC= 1.00D-01 BMatC= 1.77D-10 BMatP= 3.40D-10
 IDIUse=1 WtCom= 1.00D+00 WtEn= 0.00D+00
 Coeff-Com:  0.878D-03-0.443D-01-0.290D-01 0.372D-01 0.532D+00 0.503D+00
 Coeff:      0.878D-03-0.443D-01-0.290D-01 0.372D-01 0.532D+00 0.503D+00
 Gap=     0.208 Goal=   None    Shift=    0.000
 RMSDP=4.60D-08 MaxDP=1.66D-06 DE=-4.53D-10 OVMax= 5.85D-06

 Cycle  14  Pass 1  IDiag  1:
 RMSU=  3.64D-08    CP:  1.00D+00  1.03D+00  5.61D-01  1.06D+00  9.85D-01
                    CP:  8.35D-01
 E= -1000.15312364117     Delta-E=       -0.000000000248 Rises=F Damp=F
 DIIS: error= 1.69D-07 at cycle   7 NSaved=   7.
 NSaved= 7 IEnMin= 7 EnMin= -1000.15312364117     IErMin= 7 ErrMin= 1.69D-07
 ErrMax= 1.69D-07  0.00D+00 EMaxC= 1.00D-01 BMatC= 6.37D-12 BMatP= 1.77D-10
 IDIUse=1 WtCom= 1.00D+00 WtEn= 0.00D+00
 Coeff-Com:  0.199D-03-0.911D-02-0.621D-02-0.183D-01 0.132D-01 0.134D+00
 Coeff-Com:  0.886D+00
 Coeff:      0.199D-03-0.911D-02-0.621D-02-0.183D-01 0.132D-01 0.134D+00
 Coeff:      0.886D+00
 Gap=     0.208 Goal=   None    Shift=    0.000
 RMSDP=1.40D-08 MaxDP=4.35D-07 DE=-2.48D-10 OVMax= 2.40D-06

 Cycle  15  Pass 1  IDiag  1:
 RMSU=  8.78D-09    CP:  1.00D+00  1.03D+00  5.61D-01  1.06D+00  1.00D+00
                    CP:  9.55D-01  1.07D+00
 E= -1000.15312364117     Delta-E=        0.000000000000 Rises=F Damp=F
 DIIS: error= 5.57D-08 at cycle   8 NSaved=   8.
 NSaved= 8 IEnMin= 7 EnMin= -1000.15312364117     IErMin= 8 ErrMin= 5.57D-08
 ErrMax= 5.57D-08  0.00D+00 EMaxC= 1.00D-01 BMatC= 1.99D-12 BMatP= 6.37D-12
 IDIUse=1 WtCom= 1.00D+00 WtEn= 0.00D+00
 Coeff-Com: -0.341D-04 0.222D-02 0.132D-02-0.153D-01-0.777D-01-0.924D-02
 Coeff-Com:  0.444D+00 0.655D+00
 Coeff:     -0.341D-04 0.222D-02 0.132D-02-0.153D-01-0.777D-01-0.924D-02
 Coeff:      0.444D+00 0.655D+00
 Gap=     0.208 Goal=   None    Shift=    0.000
 RMSDP=5.56D-09 MaxDP=1.72D-07 DE= 4.55D-13 OVMax= 7.08D-07

 SCF Done:  E(RM062X) =  -1000.15312364     A.U. after   15 cycles
            NFock= 15  Conv=0.56D-08     -V/T= 2.0066
 KE= 9.935982842813D+02 PE=-6.464895654275D+03 EE= 2.397392562886D+03
 Leave Link  502 at Wed Mar 27 20:32:32 2024, MaxMem=   134217728 cpu:            1106.9 elap:              61.7
 (Enter /shared/ucl/apps/gaussian/g16-a03/pgi-2016.5/g16/l601.exe)
 Copying SCF densities to generalized density rwf, IOpCl= 0 IROHF=0.

 **********************************************************************

            Population analysis using the SCF density.

 **********************************************************************

 Alpha  occ. eigenvalues --  -10.57347 -10.57239 -10.56978 -10.56956 -10.56877
 Alpha  occ. eigenvalues --  -10.56815 -10.56707 -10.56633 -10.56537 -10.56469
 Alpha  occ. eigenvalues --  -10.55753 -10.55711 -10.55671 -10.55642 -10.55640
 Alpha  occ. eigenvalues --  -10.55634 -10.55631 -10.55597 -10.55571 -10.55562
 Alpha  occ. eigenvalues --  -10.55559 -10.55557 -10.55546 -10.55487 -10.55486
 Alpha  occ. eigenvalues --  -10.55469  -1.00433  -0.97810  -0.95901  -0.94863
 Alpha  occ. eigenvalues --   -0.92265  -0.88214  -0.87899  -0.87155  -0.84797
 Alpha  occ. eigenvalues --   -0.83387  -0.81988  -0.81314  -0.80537  -0.72495
 Alpha  occ. eigenvalues --   -0.72188  -0.71798  -0.70601  -0.67448  -0.66987
 Alpha  occ. eigenvalues --   -0.66894  -0.64475  -0.60724  -0.60350  -0.60290
 Alpha  occ. eigenvalues --   -0.56615  -0.56106  -0.55440  -0.54257  -0.53194
 Alpha  occ. eigenvalues --   -0.52919  -0.50460  -0.50403  -0.49860  -0.49148
 Alpha  occ. eigenvalues --   -0.49001  -0.48913  -0.48547  -0.48190  -0.47435
 Alpha  occ. eigenvalues --   -0.45970  -0.45781  -0.43459  -0.43361  -0.42896
 Alpha  occ. eigenvalues --   -0.42598  -0.42248  -0.41303  -0.40266  -0.39472
 Alpha  occ. eigenvalues --   -0.39305  -0.37903  -0.36765  -0.34582  -0.33809
 Alpha  occ. eigenvalues --   -0.32971  -0.31179  -0.30513  -0.27814  -0.26631
 Alpha  occ. eigenvalues --   -0.24295
 Alpha virt. eigenvalues --   -0.03452  -0.01601  -0.00578   0.00705   0.03026
 Alpha virt. eigenvalues --    0.05402   0.06194   0.06962   0.10287   0.10444
 Alpha virt. eigenvalues --    0.10825   0.11438   0.11882   0.12834   0.14314
 Alpha virt. eigenvalues --    0.14828   0.15925   0.16134   0.17134   0.17169
 Alpha virt. eigenvalues --    0.17652   0.18699   0.19234   0.19372   0.21528
 Alpha virt. eigenvalues --    0.22845   0.23026   0.23651   0.24272   0.25700
 Alpha virt. eigenvalues --    0.27169   0.28730   0.29647   0.30081   0.30399
 Alpha virt. eigenvalues --    0.30572   0.30875   0.31570   0.32213   0.32711
 Alpha virt. eigenvalues --    0.34360   0.35011   0.36369   0.37012   0.37434
 Alpha virt. eigenvalues --    0.38035   0.39715   0.40214   0.42239   0.44620
 Alpha virt. eigenvalues --    0.45220   0.47095   0.47796   0.48268   0.49101
 Alpha virt. eigenvalues --    0.49158   0.50676   0.50832   0.51215   0.51911
 Alpha virt. eigenvalues --    0.52020   0.52064   0.52105   0.52606   0.52966
 Alpha virt. eigenvalues --    0.53337   0.53445   0.53729   0.54160   0.54990
 Alpha virt. eigenvalues --    0.55162   0.55191   0.55630   0.55794   0.56165
 Alpha virt. eigenvalues --    0.57012   0.57145   0.57289   0.57520   0.58233
 Alpha virt. eigenvalues --    0.58371   0.59112   0.59393   0.59511   0.59838
 Alpha virt. eigenvalues --    0.60033   0.60262   0.60373   0.60900   0.61239
 Alpha virt. eigenvalues --    0.62894   0.63481   0.64454   0.64660   0.64882
 Alpha virt. eigenvalues --    0.65724   0.67476   0.68166   0.68755   0.68982
 Alpha virt. eigenvalues --    0.69372   0.69630   0.70164   0.70631   0.71037
 Alpha virt. eigenvalues --    0.71902   0.72305   0.72704   0.72848   0.73326
 Alpha virt. eigenvalues --    0.74009   0.74685   0.75238   0.75655   0.75959
 Alpha virt. eigenvalues --    0.76811   0.77198   0.77551   0.79150   0.79894
 Alpha virt. eigenvalues --    0.81062   0.81127   0.81232   0.82532   0.83600
 Alpha virt. eigenvalues --    0.87059   0.87452   0.88730   0.90093   0.90676
 Alpha virt. eigenvalues --    0.90951   0.91985   0.93862   0.94200   0.94426
 Alpha virt. eigenvalues --    0.94696   0.95438   0.96024   0.96146   0.96217
 Alpha virt. eigenvalues --    0.96464   0.97618   0.97955   0.98244   0.98413
 Alpha virt. eigenvalues --    0.98711   0.99521   0.99989   1.01599   1.01660
 Alpha virt. eigenvalues --    1.02011   1.02359   1.02485   1.03947   1.04540
 Alpha virt. eigenvalues --    1.04925   1.05242   1.05446   1.06922   1.07252
 Alpha virt. eigenvalues --    1.07857   1.07995   1.08645   1.09379   1.09831
 Alpha virt. eigenvalues --    1.10502   1.10645   1.11404   1.11701   1.11974
 Alpha virt. eigenvalues --    1.13092   1.13394   1.17679   1.18896   1.19225
 Alpha virt. eigenvalues --    1.20260   1.20541   1.20903   1.21289   1.22741
 Alpha virt. eigenvalues --    1.26629   1.28857   1.29474   1.32043   1.34263
 Alpha virt. eigenvalues --    1.34483   1.35015   1.36069   1.36382   1.37111
 Alpha virt. eigenvalues --    1.37827   1.39527   1.39949   1.40912   1.41666
 Alpha virt. eigenvalues --    1.42662   1.45184   1.46214   1.48142   1.49290
 Alpha virt. eigenvalues --    1.50387   1.50855   1.51270   1.51623   1.52405
 Alpha virt. eigenvalues --    1.52695   1.52863   1.53428   1.53742   1.53821
 Alpha virt. eigenvalues --    1.54571   1.54606   1.55330   1.55512   1.57669
 Alpha virt. eigenvalues --    1.58162   1.58306   1.59450   1.60445   1.61641
 Alpha virt. eigenvalues --    1.62607   1.62805   1.63939   1.64851   1.64924
 Alpha virt. eigenvalues --    1.65279   1.65365   1.65830   1.66035   1.67263
 Alpha virt. eigenvalues --    1.67433   1.67640   1.68455   1.68792   1.69186
 Alpha virt. eigenvalues --    1.70106   1.70530   1.70783   1.71112   1.71863
 Alpha virt. eigenvalues --    1.71983   1.73102   1.74346   1.76110   1.76367
 Alpha virt. eigenvalues --    1.76438   1.76623   1.77005   1.77546   1.78026
 Alpha virt. eigenvalues --    1.78833   1.80092   1.81284   1.82490   1.82554
 Alpha virt. eigenvalues --    1.83182   1.83466   1.83912   1.84323   1.85044
 Alpha virt. eigenvalues --    1.85948   1.86366   1.86659   1.87620   1.87727
 Alpha virt. eigenvalues --    1.88128   1.88490   1.88630   1.88924   1.89387
 Alpha virt. eigenvalues --    1.90107   1.90623   1.91948   1.92524   1.92722
 Alpha virt. eigenvalues --    1.93699   1.94753   1.95697   1.95992   1.96369
 Alpha virt. eigenvalues --    1.98678   1.99099   2.00096   2.01038   2.01291
 Alpha virt. eigenvalues --    2.02346   2.02586   2.03196   2.03399   2.03430
 Alpha virt. eigenvalues --    2.04676   2.06533   2.08477   2.08863   2.09221
 Alpha virt. eigenvalues --    2.10900   2.11580   2.13739   2.14726   2.15831
 Alpha virt. eigenvalues --    2.16488   2.17563   2.19710   2.20274   2.22118
 Alpha virt. eigenvalues --    2.22749   2.25107   2.25841   2.26455   2.29365
 Alpha virt. eigenvalues --    2.29776   2.30641   2.30971   2.32565   2.33087
 Alpha virt. eigenvalues --    2.37782   2.41275   2.41569   2.42177   2.42369
 Alpha virt. eigenvalues --    2.42717   2.45297   2.45660   2.45945   2.46340
 Alpha virt. eigenvalues --    2.47473   2.48404   2.50477   2.52154   2.54982
 Alpha virt. eigenvalues --    2.58778   2.59293   2.59886   2.69430   2.69832
 Alpha virt. eigenvalues --    2.70099   2.71459   2.72430   2.73839   2.74440
 Alpha virt. eigenvalues --    2.74940   2.75710   2.76017   2.77092   2.81718
 Alpha virt. eigenvalues --    2.82491   2.85452   2.86001   2.86061   2.93555
 Alpha virt. eigenvalues --    2.94271   2.98511   3.17991   3.18606   3.46242
 Alpha virt. eigenvalues --    3.47452   3.57170   3.61652
          Condensed to atoms (all electrons):
               1          2          3          4          5          6
     1  C    5.152246   0.510751   0.405750   0.301184  -0.001762  -0.028989
     2  C    0.510751   4.874150  -0.033946  -0.118157   0.536876   0.391186
     3  C    0.405750  -0.033946   5.150576  -0.029118  -0.067966   0.011123
     4  C    0.301184  -0.118157  -0.029118   5.295470   0.009850  -0.026888
     5  C   -0.001762   0.536876  -0.067966   0.009850   4.708327  -0.040403
     6  H   -0.028989   0.391186   0.011123  -0.026888  -0.040403   0.687495
     7  C   -0.055214  -0.083794   0.511357   0.019770  -0.008214  -0.000525
     8  C   -0.027580   0.018340   0.280276  -0.075155  -0.000880  -0.000110
     9  C   -0.016070   0.009249  -0.078565   0.484655  -0.000142  -0.000432
    10  C   -0.093614  -0.023490   0.015232   0.285983   0.000345   0.007955
    11  C   -0.070097  -0.006723   0.005764  -0.000893   0.484882   0.009073
    12  H    0.008803  -0.031826   0.000773  -0.000503   0.390780  -0.014112
    13  H    0.013958  -0.000733  -0.011248  -0.000220   0.009132   0.000049
    14  C    0.016445  -0.000041  -0.112691  -0.002617  -0.000021   0.000008
    15  C   -0.099678  -0.002174  -0.029969  -0.016134  -0.000025  -0.000081
    16  C    0.022356   0.000430  -0.002045  -0.008629  -0.000004   0.000095
    17  C    0.014979   0.000641  -0.000310  -0.024283  -0.000010   0.000345
    18  C   -0.024160  -0.015898   0.000232  -0.113231   0.000123  -0.000828
    19  H    0.000738   0.008829   0.008722   0.000043  -0.048311  -0.000264
    20  C   -0.000081   0.000000   0.014672   0.000024   0.000001  -0.000000
    21  H   -0.000668   0.000040  -0.036839   0.000005  -0.000069   0.000001
    22  C   -0.001719  -0.000018   0.018424   0.008222   0.000001  -0.000001
    23  C    0.000397   0.000014  -0.000164   0.010037  -0.000000   0.000002
    24  C   -0.002300  -0.000173   0.000098  -0.081349   0.000000  -0.000033
    25  C   -0.000000   0.000046  -0.000003   0.020154  -0.000000  -0.000022
    26  C    0.000479  -0.000230  -0.000006   0.009589  -0.000035   0.001094
    27  H    0.005225  -0.000442   0.000134  -0.022405   0.000944  -0.005552
    28  C   -0.000029   0.000001  -0.000986  -0.000210  -0.000000  -0.000000
    29  H    0.000004  -0.000000  -0.000451  -0.000001   0.000000   0.000000
    30  H   -0.000099  -0.000001  -0.000117   0.000063  -0.000000  -0.000000
    31  C   -0.000004  -0.000000   0.000000  -0.000207   0.000000  -0.000000
    32  H    0.000090   0.000002  -0.000027  -0.000078  -0.000000   0.000000
    33  C   -0.000064  -0.000002   0.000003  -0.003157   0.000000  -0.000002
    34  C   -0.000047  -0.000030  -0.000000  -0.000766   0.000000  -0.000169
    35  H    0.000003  -0.000000  -0.000000  -0.000208   0.000000  -0.000000
    36  H    0.000054   0.000008   0.000001  -0.000538  -0.000002   0.000039
    37  H    0.000001   0.000000   0.000041  -0.000003   0.000000  -0.000000
    38  C    0.000000  -0.000000   0.000000   0.000022   0.000000  -0.000000
    39  H    0.000000   0.000000  -0.000000  -0.000002  -0.000000   0.000000
    40  H    0.000000  -0.000000   0.000000   0.000016  -0.000000  -0.000000
    41  H    0.000000   0.000000   0.000000   0.000035  -0.000000   0.000003
    42  H    0.000000  -0.000000   0.000000  -0.000001  -0.000000   0.000000
               7          8          9         10         11         12
     1  C   -0.055214  -0.027580  -0.016070  -0.093614  -0.070097   0.008803
     2  C   -0.083794   0.018340   0.009249  -0.023490  -0.006723  -0.031826
     3  C    0.511357   0.280276  -0.078565   0.015232   0.005764   0.000773
     4  C    0.019770  -0.075155   0.484655   0.285983  -0.000893  -0.000503
     5  C   -0.008214  -0.000880  -0.000142   0.000345   0.484882   0.390780
     6  H   -0.000525  -0.000110  -0.000432   0.007955   0.009073  -0.014112
     7  C    4.877640  -0.110480  -0.003022  -0.000018   0.511277   0.008727
     8  C   -0.110480   5.128478  -0.027598  -0.001754   0.014408   0.000036
     9  C   -0.003022  -0.027598   5.299589  -0.012571   0.000030  -0.000001
    10  C   -0.000018  -0.001754  -0.012571   5.186267  -0.000045   0.000060
    11  C    0.511277   0.014408   0.000030  -0.000045   4.737609  -0.048910
    12  H    0.008727   0.000036  -0.000001   0.000060  -0.048910   0.697527
    13  H    0.382886  -0.036658   0.000014   0.000004  -0.053644  -0.000279
    14  C   -0.024206   0.510859   0.019651  -0.000045   0.000167  -0.000001
    15  C    0.017904   0.404896   0.292429   0.021156  -0.000185   0.000001
    16  C   -0.000070   0.014415   0.299628  -0.103272   0.000001   0.000000
    17  C   -0.000006   0.000107  -0.078220   0.400475  -0.000000   0.000001
    18  C    0.000032  -0.000111   0.009684   0.504384  -0.000030   0.000008
    19  H   -0.031731  -0.000480  -0.000001  -0.000000   0.389890  -0.012279
    20  C    0.000078   0.004453  -0.000722   0.000000  -0.000046   0.000000
    21  H    0.008625  -0.011813  -0.000221  -0.000000   0.001558  -0.000000
    22  C   -0.000046  -0.026866  -0.115976   0.000205  -0.000000   0.000000
    23  C   -0.000002   0.000646  -0.116419  -0.002248  -0.000000   0.000000
    24  C    0.000004  -0.000408  -0.022243  -0.026785   0.000000  -0.000000
    25  C   -0.000000   0.000002  -0.003095  -0.055923   0.000000  -0.000000
    26  C   -0.000000  -0.000000  -0.000269  -0.001434   0.000000  -0.000002
    27  H   -0.000006  -0.000036   0.000117  -0.032279  -0.000138   0.000042
    28  C   -0.000023  -0.068366   0.009510  -0.000003   0.000002   0.000000
    29  H    0.000031   0.008831   0.000040   0.000000  -0.000000  -0.000000
    30  H    0.000009   0.010452  -0.021562   0.000089  -0.000000  -0.000000
    31  C    0.000000  -0.000010   0.010009  -0.000020   0.000000  -0.000000
    32  H   -0.000002  -0.000121  -0.024805  -0.000086  -0.000000   0.000000
    33  C    0.000000  -0.000004   0.020311   0.017785   0.000000  -0.000000
    34  C    0.000000   0.000000   0.000021  -0.070183  -0.000000   0.000000
    35  H    0.000000   0.000000   0.000010   0.014251  -0.000000  -0.000000
    36  H   -0.000000  -0.000000  -0.000001   0.008268   0.000000   0.000000
    37  H   -0.000001   0.000950  -0.000548   0.000000   0.000000  -0.000000
    38  C    0.000000  -0.000001  -0.000799  -0.000107  -0.000000   0.000000
    39  H   -0.000000   0.000002  -0.000548   0.000001   0.000000   0.000000
    40  H    0.000000  -0.000000  -0.000239  -0.000792   0.000000   0.000000
    41  H   -0.000000   0.000000  -0.000001   0.000590   0.000000  -0.000000
    42  H   -0.000000   0.000000   0.000037   0.000005  -0.000000   0.000000
              13         14         15         16         17         18
     1  C    0.013958   0.016445  -0.099678   0.022356   0.014979  -0.024160
     2  C   -0.000733  -0.000041  -0.002174   0.000430   0.000641  -0.015898
     3  C   -0.011248  -0.112691  -0.029969  -0.002045  -0.000310   0.000232
     4  C   -0.000220  -0.002617  -0.016134  -0.008629  -0.024283  -0.113231
     5  C    0.009132  -0.000021  -0.000025  -0.000004  -0.000010   0.000123
     6  H    0.000049   0.000008  -0.000081   0.000095   0.000345  -0.000828
     7  C    0.382886  -0.024206   0.017904  -0.000070  -0.000006   0.000032
     8  C   -0.036658   0.510859   0.404896   0.014415   0.000107  -0.000111
     9  C    0.000014   0.019651   0.292429   0.299628  -0.078220   0.009684
    10  C    0.000004  -0.000045   0.021156  -0.103272   0.400475   0.504384
    11  C   -0.053644   0.000167  -0.000185   0.000001  -0.000000  -0.000030
    12  H   -0.000279  -0.000001   0.000001   0.000000   0.000001   0.000008
    13  H    0.708438   0.008127  -0.000595  -0.000000  -0.000000  -0.000000
    14  C    0.008127   4.878625  -0.052542  -0.000069   0.000002  -0.000001
    15  C   -0.000595  -0.052542   5.178857  -0.091765  -0.001824   0.000194
    16  C   -0.000000  -0.000069  -0.091765   5.161976  -0.028364  -0.001912
    17  C   -0.000000   0.000002  -0.001824  -0.028364   5.149396  -0.029978
    18  C   -0.000000  -0.000001   0.000194  -0.001912  -0.029978   4.875803
    19  H   -0.013740   0.000032   0.000006   0.000000   0.000000   0.000000
    20  C    0.001589   0.512087  -0.070181  -0.000060   0.000000  -0.000000
    21  H   -0.005593   0.382463   0.014104   0.000005   0.000000  -0.000000
    22  C    0.000042  -0.084340   0.505965  -0.023371  -0.000111   0.000010
    23  C   -0.000000   0.000051  -0.025601   0.510983   0.018646  -0.000020
    24  C    0.000000  -0.000004   0.015243   0.396253   0.270064   0.018531
    25  C    0.000000   0.000000  -0.000051   0.017624   0.506659  -0.084736
    26  C    0.000000   0.000000  -0.000002  -0.000020  -0.067989   0.529680
    27  H   -0.000000  -0.000002   0.000091  -0.000100   0.010140   0.394605
    28  C   -0.000071  -0.007389  -0.002677   0.000447  -0.000000  -0.000000
    29  H    0.000085  -0.032568   0.000694   0.000000   0.000000  -0.000000
    30  H    0.000001  -0.000470  -0.032872   0.004388  -0.000034   0.000002
    31  C   -0.000000  -0.000000   0.000468  -0.000533  -0.001185   0.000001
    32  H   -0.000000  -0.000009   0.005815  -0.029463  -0.000116  -0.000001
    33  C    0.000000  -0.000000  -0.000026  -0.055501  -0.115552  -0.000020
    34  C    0.000000   0.000000   0.000000  -0.000092   0.006497  -0.006762
    35  H   -0.000000  -0.000000   0.000000  -0.000757  -0.010444  -0.000745
    36  H   -0.000000  -0.000000   0.000000   0.000001   0.000906  -0.032928
    37  H   -0.000000   0.008792   0.008441   0.000060  -0.000000   0.000000
    38  C    0.000000   0.000000  -0.000058  -0.071510   0.014982  -0.000001
    39  H    0.000000  -0.000000   0.000068   0.008472   0.000041   0.000000
    40  H    0.000000   0.000000   0.000003   0.014673  -0.038852   0.000043
    41  H    0.000000  -0.000000   0.000000   0.000005   0.008931   0.008995
    42  H   -0.000000  -0.000000   0.000000   0.000609  -0.000427  -0.000000
              19         20         21         22         23         24
     1  C    0.000738  -0.000081  -0.000668  -0.001719   0.000397  -0.002300
     2  C    0.008829   0.000000   0.000040  -0.000018   0.000014  -0.000173
     3  C    0.008722   0.014672  -0.036839   0.018424  -0.000164   0.000098
     4  C    0.000043   0.000024   0.000005   0.008222   0.010037  -0.081349
     5  C   -0.048311   0.000001  -0.000069   0.000001  -0.000000   0.000000
     6  H   -0.000264  -0.000000   0.000001  -0.000001   0.000002  -0.000033
     7  C   -0.031731   0.000078   0.008625  -0.000046  -0.000002   0.000004
     8  C   -0.000480   0.004453  -0.011813  -0.026866   0.000646  -0.000408
     9  C   -0.000001  -0.000722  -0.000221  -0.115976  -0.116419  -0.022243
    10  C   -0.000000   0.000000  -0.000000   0.000205  -0.002248  -0.026785
    11  C    0.389890  -0.000046   0.001558  -0.000000  -0.000000   0.000000
    12  H   -0.012279   0.000000  -0.000000   0.000000   0.000000  -0.000000
    13  H   -0.013740   0.001589  -0.005593   0.000042  -0.000000   0.000000
    14  C    0.000032   0.512087   0.382463  -0.084340   0.000051  -0.000004
    15  C    0.000006  -0.070181   0.014104   0.505965  -0.025601   0.015243
    16  C    0.000000  -0.000060   0.000005  -0.023371   0.510983   0.396253
    17  C    0.000000   0.000000   0.000000  -0.000111   0.018646   0.270064
    18  C    0.000000  -0.000000  -0.000000   0.000010  -0.000020   0.018531
    19  H    0.697652  -0.000000   0.000083  -0.000000  -0.000000   0.000000
    20  C   -0.000000   4.733482  -0.053521  -0.006418  -0.000027  -0.000001
    21  H    0.000083  -0.053521   0.709505  -0.000694  -0.000000  -0.000000
    22  C   -0.000000  -0.006418  -0.000694   4.866303  -0.014799   0.000395
    23  C   -0.000000  -0.000027  -0.000000  -0.014799   4.875434  -0.034848
    24  C    0.000000  -0.000001  -0.000000   0.000395  -0.034848   5.155542
    25  C   -0.000000   0.000000   0.000000  -0.000001  -0.000023  -0.113353
    26  C   -0.000000   0.000000  -0.000000  -0.000000   0.000001  -0.001141
    27  H    0.000002  -0.000000  -0.000000   0.000002  -0.000002  -0.000103
    28  C   -0.000000   0.487363   0.009172   0.532879  -0.000143  -0.000006
    29  H   -0.000000   0.390500  -0.013819   0.008897   0.000000   0.000000
    30  H    0.000000   0.008937   0.000050   0.394721   0.000626  -0.000093
    31  C   -0.000000   0.000000   0.000000   0.000026   0.532118  -0.068567
    32  H   -0.000000  -0.000194  -0.000000   0.000180   0.392823   0.010622
    33  C   -0.000000   0.000000   0.000000   0.000034  -0.084593   0.508932
    34  C    0.000000  -0.000000   0.000000  -0.000000  -0.000000   0.014912
    35  H    0.000000   0.000000   0.000000  -0.000000   0.000043  -0.037997
    36  H   -0.000000   0.000000   0.000000   0.000000   0.000000   0.000040
    37  H   -0.000000  -0.048119  -0.000287  -0.033040   0.000001   0.000001
    38  C   -0.000000  -0.000000   0.000000  -0.000031  -0.006763   0.007351
    39  H    0.000000   0.000000  -0.000000   0.000004  -0.032227   0.000918
    40  H   -0.000000   0.000000  -0.000000  -0.000000  -0.000710  -0.009153
    41  H   -0.000000  -0.000000  -0.000000  -0.000000  -0.000000  -0.000422
    42  H    0.000000   0.000000   0.000000   0.000000   0.009066   0.008980
              25         26         27         28         29         30
     1  C   -0.000000   0.000479   0.005225  -0.000029   0.000004  -0.000099
     2  C    0.000046  -0.000230  -0.000442   0.000001  -0.000000  -0.000001
     3  C   -0.000003  -0.000006   0.000134  -0.000986  -0.000451  -0.000117
     4  C    0.020154   0.009589  -0.022405  -0.000210  -0.000001   0.000063
     5  C   -0.000000  -0.000035   0.000944  -0.000000   0.000000  -0.000000
     6  H   -0.000022   0.001094  -0.005552  -0.000000   0.000000  -0.000000
     7  C   -0.000000  -0.000000  -0.000006  -0.000023   0.000031   0.000009
     8  C    0.000002  -0.000000  -0.000036  -0.068366   0.008831   0.010452
     9  C   -0.003095  -0.000269   0.000117   0.009510   0.000040  -0.021562
    10  C   -0.055923  -0.001434  -0.032279  -0.000003   0.000000   0.000089
    11  C    0.000000   0.000000  -0.000138   0.000002  -0.000000  -0.000000
    12  H   -0.000000  -0.000002   0.000042   0.000000  -0.000000  -0.000000
    13  H    0.000000   0.000000  -0.000000  -0.000071   0.000085   0.000001
    14  C    0.000000   0.000000  -0.000002  -0.007389  -0.032568  -0.000470
    15  C   -0.000051  -0.000002   0.000091  -0.002677   0.000694  -0.032872
    16  C    0.017624  -0.000020  -0.000100   0.000447   0.000000   0.004388
    17  C    0.506659  -0.067989   0.010140  -0.000000   0.000000  -0.000034
    18  C   -0.084736   0.529680   0.394605  -0.000000  -0.000000   0.000002
    19  H   -0.000000  -0.000000   0.000002  -0.000000  -0.000000   0.000000
    20  C    0.000000   0.000000  -0.000000   0.487363   0.390500   0.008937
    21  H    0.000000  -0.000000  -0.000000   0.009172  -0.013819   0.000050
    22  C   -0.000001  -0.000000   0.000002   0.532879   0.008897   0.394721
    23  C   -0.000023   0.000001  -0.000002  -0.000143   0.000000   0.000626
    24  C   -0.113353  -0.001141  -0.000103  -0.000006   0.000000  -0.000093
    25  C    4.891274  -0.006981  -0.000474   0.000000  -0.000000  -0.000001
    26  C   -0.006981   4.716336  -0.040380   0.000000  -0.000000  -0.000000
    27  H   -0.000474  -0.040380   0.684127  -0.000000   0.000000   0.000000
    28  C    0.000000   0.000000  -0.000000   4.712149  -0.047939  -0.039717
    29  H   -0.000000  -0.000000   0.000000  -0.047939   0.697834  -0.000258
    30  H   -0.000001  -0.000000   0.000000  -0.039717  -0.000258   0.683243
    31  C   -0.000021  -0.000000  -0.000000  -0.000035  -0.000000   0.000915
    32  H    0.000008  -0.000000  -0.000000   0.001101   0.000003  -0.006071
    33  C   -0.024015  -0.000026   0.000009  -0.000000  -0.000000  -0.000008
    34  C    0.510972   0.485606   0.008901   0.000000  -0.000000  -0.000000
    35  H    0.382901   0.009247   0.000049  -0.000000  -0.000000  -0.000000
    36  H    0.008694   0.390473  -0.013393  -0.000000   0.000000   0.000000
    37  H   -0.000000  -0.000000   0.000000   0.390634  -0.012540  -0.013510
    38  C    0.000068   0.000001  -0.000000   0.000000   0.000000  -0.000158
    39  H   -0.000001   0.000000  -0.000000  -0.000002  -0.000000   0.000054
    40  H    0.008694  -0.000065   0.000001   0.000000   0.000000  -0.000000
    41  H   -0.032261  -0.047947  -0.000264  -0.000000   0.000000  -0.000000
    42  H    0.000031   0.000000   0.000000  -0.000000  -0.000000   0.000002
              31         32         33         34         35         36
     1  C   -0.000004   0.000090  -0.000064  -0.000047   0.000003   0.000054
     2  C   -0.000000   0.000002  -0.000002  -0.000030  -0.000000   0.000008
     3  C    0.000000  -0.000027   0.000003  -0.000000  -0.000000   0.000001
     4  C   -0.000207  -0.000078  -0.003157  -0.000766  -0.000208  -0.000538
     5  C    0.000000  -0.000000   0.000000   0.000000   0.000000  -0.000002
     6  H   -0.000000   0.000000  -0.000002  -0.000169  -0.000000   0.000039
     7  C    0.000000  -0.000002   0.000000   0.000000   0.000000  -0.000000
     8  C   -0.000010  -0.000121  -0.000004   0.000000   0.000000  -0.000000
     9  C    0.010009  -0.024805   0.020311   0.000021   0.000010  -0.000001
    10  C   -0.000020  -0.000086   0.017785  -0.070183   0.014251   0.008268
    11  C    0.000000  -0.000000   0.000000  -0.000000  -0.000000   0.000000
    12  H   -0.000000   0.000000  -0.000000   0.000000  -0.000000   0.000000
    13  H   -0.000000  -0.000000   0.000000   0.000000  -0.000000  -0.000000
    14  C   -0.000000  -0.000009  -0.000000   0.000000  -0.000000  -0.000000
    15  C    0.000468   0.005815  -0.000026   0.000000   0.000000   0.000000
    16  C   -0.000533  -0.029463  -0.055501  -0.000092  -0.000757   0.000001
    17  C   -0.001185  -0.000116  -0.115552   0.006497  -0.010444   0.000906
    18  C    0.000001  -0.000001  -0.000020  -0.006762  -0.000745  -0.032928
    19  H   -0.000000  -0.000000  -0.000000   0.000000   0.000000  -0.000000
    20  C    0.000000  -0.000194   0.000000  -0.000000   0.000000   0.000000
    21  H    0.000000  -0.000000   0.000000   0.000000   0.000000   0.000000
    22  C    0.000026   0.000180   0.000034  -0.000000  -0.000000   0.000000
    23  C    0.532118   0.392823  -0.084593  -0.000000   0.000043   0.000000
    24  C   -0.068567   0.010622   0.508932   0.014912  -0.037997   0.000040
    25  C   -0.000021   0.000008  -0.024015   0.510972   0.382901   0.008694
    26  C   -0.000000  -0.000000  -0.000026   0.485606   0.009247   0.390473
    27  H   -0.000000  -0.000000   0.000009   0.008901   0.000049  -0.013393
    28  C   -0.000035   0.001101  -0.000000   0.000000  -0.000000  -0.000000
    29  H   -0.000000   0.000003  -0.000000  -0.000000  -0.000000   0.000000
    30  H    0.000915  -0.006071  -0.000008  -0.000000  -0.000000   0.000000
    31  C    4.713730  -0.040683  -0.006022   0.000001  -0.000066   0.000000
    32  H   -0.040683   0.682506  -0.000467  -0.000000   0.000001  -0.000000
    33  C   -0.006022  -0.000467   4.890791   0.000068   0.008112  -0.000001
    34  C    0.000001  -0.000000   0.000068   4.735628  -0.054528  -0.047256
    35  H   -0.000066   0.000001   0.008112  -0.054528   0.710723  -0.000285
    36  H    0.000000  -0.000000  -0.000001  -0.047256  -0.000285   0.695558
    37  H   -0.000002   0.000055  -0.000000   0.000000   0.000000   0.000000
    38  C    0.483962   0.008928   0.509356  -0.000043   0.001590   0.000000
    39  H    0.390504  -0.013463   0.008564   0.000000  -0.000000  -0.000000
    40  H    0.009251   0.000049   0.382261   0.001603  -0.006508  -0.000000
    41  H    0.000000   0.000000   0.000032   0.390276  -0.014018  -0.012449
    42  H   -0.048463  -0.000268  -0.032337  -0.000000   0.000087  -0.000000
              37         38         39         40         41         42
     1  C    0.000001   0.000000   0.000000   0.000000   0.000000   0.000000
     2  C    0.000000  -0.000000   0.000000  -0.000000   0.000000  -0.000000
     3  C    0.000041   0.000000  -0.000000   0.000000   0.000000   0.000000
     4  C   -0.000003   0.000022  -0.000002   0.000016   0.000035  -0.000001
     5  C    0.000000   0.000000  -0.000000  -0.000000  -0.000000  -0.000000
     6  H   -0.000000  -0.000000   0.000000  -0.000000   0.000003   0.000000
     7  C   -0.000001   0.000000  -0.000000   0.000000  -0.000000  -0.000000
     8  C    0.000950  -0.000001   0.000002  -0.000000   0.000000   0.000000
     9  C   -0.000548  -0.000799  -0.000548  -0.000239  -0.000001   0.000037
    10  C    0.000000  -0.000107   0.000001  -0.000792   0.000590   0.000005
    11  C    0.000000  -0.000000   0.000000   0.000000   0.000000  -0.000000
    12  H   -0.000000   0.000000   0.000000   0.000000  -0.000000   0.000000
    13  H   -0.000000   0.000000   0.000000   0.000000   0.000000  -0.000000
    14  C    0.008792   0.000000  -0.000000   0.000000  -0.000000  -0.000000
    15  C    0.008441  -0.000058   0.000068   0.000003   0.000000   0.000000
    16  C    0.000060  -0.071510   0.008472   0.014673   0.000005   0.000609
    17  C   -0.000000   0.014982   0.000041  -0.038852   0.008931  -0.000427
    18  C    0.000000  -0.000001   0.000000   0.000043   0.008995  -0.000000
    19  H   -0.000000  -0.000000   0.000000  -0.000000  -0.000000   0.000000
    20  C   -0.048119  -0.000000   0.000000   0.000000  -0.000000   0.000000
    21  H   -0.000287   0.000000  -0.000000  -0.000000  -0.000000   0.000000
    22  C   -0.033040  -0.000031   0.000004  -0.000000  -0.000000   0.000000
    23  C    0.000001  -0.006763  -0.032227  -0.000710  -0.000000   0.009066
    24  C    0.000001   0.007351   0.000918  -0.009153  -0.000422   0.008980
    25  C   -0.000000   0.000068  -0.000001   0.008694  -0.032261   0.000031
    26  C   -0.000000   0.000001   0.000000  -0.000065  -0.047947   0.000000
    27  H    0.000000  -0.000000  -0.000000   0.000001  -0.000264   0.000000
    28  C    0.390634   0.000000  -0.000002   0.000000  -0.000000  -0.000000
    29  H   -0.012540   0.000000  -0.000000   0.000000   0.000000  -0.000000
    30  H   -0.013510  -0.000158   0.000054  -0.000000  -0.000000   0.000002
    31  C   -0.000002   0.483962   0.390504   0.009251   0.000000  -0.048463
    32  H    0.000055   0.008928  -0.013463   0.000049   0.000000  -0.000268
    33  C   -0.000000   0.509356   0.008564   0.382261   0.000032  -0.032337
    34  C    0.000000  -0.000043   0.000000   0.001603   0.390276  -0.000000
    35  H    0.000000   0.001590  -0.000000  -0.006508  -0.014018   0.000087
    36  H    0.000000   0.000000  -0.000000  -0.000000  -0.012449  -0.000000
    37  H    0.697061   0.000000   0.000000  -0.000000   0.000000  -0.000000
    38  C    0.000000   4.737921  -0.047882  -0.055280  -0.000000   0.390489
    39  H    0.000000  -0.047882   0.695498  -0.000279  -0.000000  -0.012375
    40  H   -0.000000  -0.055280  -0.000279   0.712727   0.000087  -0.014095
    41  H    0.000000  -0.000000  -0.000000   0.000087   0.697433  -0.000000
    42  H   -0.000000   0.390489  -0.012375  -0.014095  -0.000000   0.698674
 Mulliken charges:
               1
     1  C   -0.031286
     2  C   -0.032885
     3  C   -0.018727
     4  C    0.079631
     5  C    0.026584
     6  H    0.009942
     7  C   -0.020981
     8  C   -0.008720
     9  C    0.069083
    10  C   -0.038386
    11  C    0.026052
    12  H    0.001159
    13  H   -0.001541
    14  C   -0.020295
    15  C   -0.039895
    16  C   -0.034882
    17  C   -0.005108
    18  C   -0.030965
    19  H    0.000809
    20  C    0.026181
    21  H   -0.002085
    22  C   -0.028877
    23  C   -0.032300
    24  C   -0.008907
    25  C   -0.026162
    26  C    0.024022
    27  H    0.011186
    28  C    0.024339
    29  H    0.000656
    30  H    0.011421
    31  C    0.024832
    32  H    0.013669
    33  C   -0.024460
    34  C    0.025392
    35  H   -0.001461
    36  H    0.002810
    37  H    0.002013
    38  C    0.027962
    39  H    0.002651
    40  H   -0.003433
    41  H    0.000977
    42  H   -0.000013
 Sum of Mulliken charges =  -0.00000
 Mulliken charges with hydrogens summed into heavy atoms:
               1
     1  C   -0.031286
     2  C   -0.022944
     3  C   -0.018727
     4  C    0.079631
     5  C    0.027742
     7  C   -0.022522
     8  C   -0.008720
     9  C    0.069083
    10  C   -0.038386
    11  C    0.026861
    14  C   -0.022380
    15  C   -0.039895
    16  C   -0.034882
    17  C   -0.005108
    18  C   -0.019779
    20  C    0.026837
    22  C   -0.017456
    23  C   -0.018631
    24  C   -0.008907
    25  C   -0.027623
    26  C    0.026832
    28  C    0.026351
    31  C    0.027483
    33  C   -0.027893
    34  C    0.026369
    38  C    0.027948
 Electronic spatial extent (au):  <R**2>=         178707.1282
 Charge=             -0.0000 electrons
 Dipole moment (field-independent basis, Debye):
    X=              0.0016    Y=              0.0349    Z=             -0.0259  Tot=              0.0435
 Quadrupole moment (field-independent basis, Debye-Ang):
   XX=           -130.3126   YY=           -153.8147   ZZ=           -131.3619
   XY=             -3.9288   XZ=             -1.4881   YZ=              0.7672
 Traceless Quadrupole moment (field-independent basis, Debye-Ang):
   XX=              8.1838   YY=            -15.3183   ZZ=              7.1345
   XY=             -3.9288   XZ=             -1.4881   YZ=              0.7672
 Octapole moment (field-independent basis, Debye-Ang**2):
  XXX=          -3467.3226  YYY=          -2236.1903  ZZZ=          -5220.1563  XYY=          -1390.8886
  XXY=           -733.6324  XXZ=          -1755.3908  XZZ=          -1187.1474  YZZ=           -582.1121
  YYZ=          -2036.8509  XYZ=            -60.3470
 Hexadecapole moment (field-independent basis, Debye-Ang**3):
 XXXX=         -66381.1795 YYYY=         -22559.0138 ZZZZ=        -143373.5198 XXXY=         -18272.7193
 XXXZ=         -46041.8481 YYYX=         -19557.1204 YYYZ=         -29726.9980 ZZZX=         -46170.9069
 ZZZY=         -23577.2700 XXYY=         -16948.6009 XXZZ=         -35314.4199 YYZZ=         -30692.9869
 XXYZ=          -9910.9402 YYXZ=         -18330.8767 ZZXY=          -6052.3869
 N-N= 2.073751683466D+03 E-N=-6.464895647712D+03  KE= 9.935982842813D+02
 No NMR shielding tensors so no spin-rotation constants.
 Leave Link  601 at Wed Mar 27 20:32:32 2024, MaxMem=   134217728 cpu:               3.3 elap:               0.2
 (Enter /shared/ucl/apps/gaussian/g16-a03/pgi-2016.5/g16/l602.exe)
 FitSet:  NAtFit=    42 NAtPot=    42 NAtFrz=     0 MDM=    46 TotChg=   0.00000
 Merz-Kollman atomic radii used.

 **********************************************************************

            Electrostatic Properties Using The SCF Density

 **********************************************************************

       Atomic Center    1 is at   8.919150  5.070399 15.151470
       Atomic Center    2 is at   9.877173  5.419498 16.136875
       Atomic Center    3 is at   7.544365  5.300330 15.460948
       Atomic Center    4 is at   9.302084  4.697806 13.793306
       Atomic Center    5 is at   9.508080  5.914855 17.375985
       Atomic Center    6 is at  10.936385  5.363458 15.898423
       Atomic Center    7 is at   7.194966  5.826283 16.722798
       Atomic Center    8 is at   6.535947  5.005559 14.461301
       Atomic Center    9 is at   8.356237  4.860874 12.768952
       Atomic Center   10 is at  10.631769  4.218506 13.438406
       Atomic Center   11 is at   8.153023  6.116975 17.678065
       Atomic Center   12 is at  10.278029  6.193476 18.093025
       Atomic Center   13 is at   6.150247  6.052660 16.930528
       Atomic Center   14 is at   5.177462  4.852875 14.802960
       Atomic Center   15 is at   6.941509  4.813482 13.110820
       Atomic Center   16 is at   8.827544  5.097086 11.412984
       Atomic Center   17 is at  11.066617  4.258769 12.078625
       Atomic Center   18 is at  11.465583  3.567477 14.382159
       Atomic Center   19 is at   7.859595  6.538873 18.639670
       Atomic Center   20 is at   4.229634  4.497508 13.860409
       Atomic Center   21 is at   4.878192  4.954939 15.843932
       Atomic Center   22 is at   5.956591  4.421865 12.172876
       Atomic Center   23 is at   8.013073  5.748434 10.454298
       Atomic Center   24 is at  10.191201  4.845328 11.076541
       Atomic Center   25 is at  12.324288  3.706959 11.743929
       Atomic Center   26 is at  12.695512  3.038960 14.028276
       Atomic Center   27 is at  11.101770  3.409198 15.395016
       Atomic Center   28 is at   4.629910  4.269841 12.537486
       Atomic Center   29 is at   3.186977  4.366033 14.147856
       Atomic Center   30 is at   6.260092  4.150036 11.165072
       Atomic Center   31 is at   8.488555  6.082423  9.197979
       Atomic Center   32 is at   7.014239  6.070105 10.739029
       Atomic Center   33 is at  10.650411  5.193079  9.787290
       Atomic Center   34 is at  13.137646  3.118785 12.698894
       Atomic Center   35 is at  12.647769  3.701146 10.703001
       Atomic Center   36 is at  13.298607  2.518681 14.773346
       Atomic Center   37 is at   3.904955  3.931959 11.797361
       Atomic Center   38 is at   9.815110  5.786413  8.852862
       Atomic Center   39 is at   7.846754  6.623269  8.501847
       Atomic Center   40 is at  11.692089  5.014070  9.524843
       Atomic Center   41 is at  14.090768  2.671322 12.414453
       Atomic Center   42 is at  10.193673  6.053710  7.866974
    1596 points will be used for fitting atomic charges
 Fitting point charges to electrostatic potential
 Charges from ESP fit, RMS=   0.00118 RRMS=   0.10260:
 ESP charges:
               1
     1  C    0.110029
     2  C   -0.182771
     3  C    0.002940
     4  C   -0.096776
     5  C   -0.125836
     6  H    0.136405
     7  C   -0.173137
     8  C    0.059409
     9  C   -0.054673
    10  C    0.105637
    11  C   -0.133768
    12  H    0.129776
    13  H    0.137555
    14  C   -0.208051
    15  C    0.073145
    16  C    0.081339
    17  C    0.018932
    18  C   -0.189124
    19  H    0.132457
    20  C   -0.107664
    21  H    0.145009
    22  C   -0.184537
    23  C   -0.172397
    24  C    0.033865
    25  C   -0.193577
    26  C   -0.123780
    27  H    0.135641
    28  C   -0.124744
    29  H    0.125126
    30  H    0.136860
    31  C   -0.129098
    32  H    0.134952
    33  C   -0.179513
    34  C   -0.110932
    35  H    0.142167
    36  H    0.127497
    37  H    0.126529
    38  C   -0.129002
    39  H    0.130164
    40  H    0.138829
    41  H    0.124744
    42  H    0.130375
 Sum of ESP charges =   0.00000
 ESP charges with hydrogens summed into heavy atoms:
               1
     1  C    0.110029
     2  C   -0.046366
     3  C    0.002940
     4  C   -0.096776
     5  C    0.003939
     7  C   -0.035582
     8  C    0.059409
     9  C   -0.054673
    10  C    0.105637
    11  C   -0.001310
    14  C   -0.063043
    15  C    0.073145
    16  C    0.081339
    17  C    0.018932
    18  C   -0.053483
    20  C    0.017461
    22  C   -0.047677
    23  C   -0.037445
    24  C    0.033865
    25  C   -0.051410
    26  C    0.003717
    28  C    0.001785
    31  C    0.001065
    33  C   -0.040684
    34  C    0.013811
    38  C    0.001373
 Charge=   0.00000 Dipole=    -0.0017     0.0372    -0.0349 Tot=     0.0511
 -----------------------------------------------------------------

              Electrostatic Properties (Atomic Units)

 -----------------------------------------------------------------
    Center     Electric         -------- Electric Field --------
               Potential          X             Y             Z
 -----------------------------------------------------------------
    1 Atom    -14.733687
    2 Atom    -14.749396
    3 Atom    -14.738851
    4 Atom    -14.730272
    5 Atom    -14.749200
    6 Atom     -1.091580
    7 Atom    -14.748527
    8 Atom    -14.739521
    9 Atom    -14.731368
   10 Atom    -14.734048
   11 Atom    -14.748183
   12 Atom     -1.089736
   13 Atom     -1.087856
   14 Atom    -14.748632
   15 Atom    -14.735759
   16 Atom    -14.735003
   17 Atom    -14.736824
   18 Atom    -14.748540
   19 Atom     -1.088469
   20 Atom    -14.748288
   21 Atom     -1.087958
   22 Atom    -14.749024
   23 Atom    -14.749556
   24 Atom    -14.737489
   25 Atom    -14.746855
   26 Atom    -14.748243
   27 Atom     -1.090488
   28 Atom    -14.749138
   29 Atom     -1.088159
   30 Atom     -1.090737
   31 Atom    -14.748890
   32 Atom     -1.091388
   33 Atom    -14.747342
   34 Atom    -14.747406
   35 Atom     -1.087176
   36 Atom     -1.088722
   37 Atom     -1.089707
   38 Atom    -14.747743
   39 Atom     -1.088980
   40 Atom     -1.087606
   41 Atom     -1.087985
   42 Atom     -1.088645
 -----------------------------------------------------------------
 Leave Link  602 at Wed Mar 27 20:32:32 2024, MaxMem=   134217728 cpu:               1.8 elap:               0.1
 (Enter /shared/ucl/apps/gaussian/g16-a03/pgi-2016.5/g16/l9999.exe)
 1\1\GINC-NODE-D00A-101\SP\RM062X\CC-pVDZ\C26H16\ZCCAMIN\27-Mar-2024\0\
 \#p M062X/cc-pvdz nosymm scf=tight pop=ESP\\cytosine monom1\\0,1\C,0,8
 .91915,5.070399,15.15147\C,0,9.877173,5.419498,16.136875\C,0,7.544365,
 5.30033,15.460948\C,0,9.302084,4.697806,13.793306\C,0,9.50808,5.914855
 ,17.375985\H,0,10.936385,5.363458,15.898423\C,0,7.194966,5.826283,16.7
 22798\C,0,6.535947,5.005559,14.461301\C,0,8.356237,4.860874,12.768952\
 C,0,10.631769,4.218506,13.438406\C,0,8.153023,6.116975,17.678065\H,0,1
 0.278029,6.193476,18.093025\H,0,6.150247,6.05266,16.930528\C,0,5.17746
 2,4.852875,14.80296\C,0,6.941509,4.813482,13.11082\C,0,8.827544,5.0970
 86,11.412984\C,0,11.066617,4.258769,12.078625\C,0,11.465583,3.567477,1
 4.382159\H,0,7.859595,6.538873,18.63967\C,0,4.229634,4.497508,13.86040
 9\H,0,4.878192,4.954939,15.843932\C,0,5.956591,4.421865,12.172876\C,0,
 8.013073,5.748434,10.454298\C,0,10.191201,4.845328,11.076541\C,0,12.32
 4288,3.706959,11.743929\C,0,12.695512,3.03896,14.028276\H,0,11.10177,3
 .409198,15.395016\C,0,4.62991,4.269841,12.537486\H,0,3.186977,4.366033
 ,14.147856\H,0,6.260092,4.150036,11.165072\C,0,8.488555,6.082423,9.197
 979\H,0,7.014239,6.070105,10.739029\C,0,10.650411,5.193079,9.78729\C,0
 ,13.137646,3.118785,12.698894\H,0,12.647769,3.701146,10.703001\H,0,13.
 298607,2.518681,14.773346\H,0,3.904955,3.931959,11.797361\C,0,9.81511,
 5.786413,8.852862\H,0,7.846754,6.623269,8.501847\H,0,11.692089,5.01407
 ,9.524843\H,0,14.090768,2.671322,12.414453\H,0,10.193673,6.05371,7.866
 974\\Version=ES64L-G16RevA.03\HF=-1000.1531236\RMSD=5.565e-09\Dipole=0
 .0006105,0.0137465,-0.0101705\Quadrupole=6.084446,-11.3887815,5.304335
 5,-2.9209306,-1.1063526,0.5704026\PG=C01 [X(C26H16)]\\@


 FROM WHENCE IT HAPPENS, THAT THEY WHICH TRUST TO BOOKS, DO AS THEY THAT CAST UP MANY LITTLE SUMMS INTO GREATER,
 WITHOUT CONSIDERING WETHER THOSE LITTLE SUMMES WERE RIGHTLY CAST UP OR NOT...
 AND AT LAST FINDING THE ERROUR VISIBLE, AND NOT MISTRUSTING THEIR FIRST GROUNDS,
 KNOW NOT WHICH WAY TO CLEERE THEMSELVES...
 BUT SPEND TIME IN FLUTTERING OVER THEIR BOOKES....
 AS BIRDS THAT ENTERING BY THE CHIMNEY, AND FINDING THEMSELVES INCLOSED IN A CHAMBER,
 FLUTTER AT THE FALSE LIGHT OF A GLASSE WINDOW,
 FOR WANT OF WIT TO CONSIDER WHICH WAY THEY CAME IN....
           LEVIATHAN
 Job cpu time:       0 days  0 hours 19 minutes 10.7 seconds.
 Elapsed time:       0 days  0 hours  1 minutes  4.4 seconds.
 File lengths (MBytes):  RWF=    109 Int=      0 D2E=      0 Chk=     66 Scr=      1
 Normal termination of Gaussian 16 at Wed Mar 27 20:32:32 2024.
