1848
shell.xyz
     C -13.708968  -2.119466  -2.037142
     C -14.666991  -2.468566  -3.022547
     C -12.334183  -2.349398  -2.346619
     C -14.091902  -1.746873  -0.678977
     C -14.297898  -2.963922  -4.261656
     H -15.726203  -2.412526  -2.784095
     C -11.984784  -2.875351  -3.608470
     C -11.325765  -2.054626  -1.346973
     C -15.421587  -1.267573  -0.324077
     C -13.146055  -1.909942   0.345376
     C -12.942841  -3.166043  -4.563736
     H -15.067847  -3.242543  -4.978697
     H -10.940065  -3.101727  -3.816200
     C  -9.967280  -1.901942  -1.688631
     C -11.731327  -1.862550   0.003507
     C -16.255401  -0.616545  -1.267831
     C -15.856435  -1.307837   1.035703
     C -13.617362  -2.146154   1.701344
     H -12.649413  -3.587941  -5.525342
     C  -9.019452  -1.546576  -0.746081
     H  -9.668010  -2.004007  -2.729603
     C -10.746408  -1.470933   0.941452
     C -17.485330  -0.088029  -0.913947
     H -15.891588  -0.458266  -2.280688
     C -14.981020  -1.894395   2.037788
     C -17.114106  -0.756027   1.370399
     C -12.802891  -2.797502   2.660031
     H  -7.976796  -1.415101  -1.033528
     C  -9.419729  -1.318909   0.576842
     H -11.049910  -1.199104   1.949256
     C -17.927464  -0.167852   0.415434
     H -18.088425   0.432251  -1.659018
     C -15.440229  -2.242147   3.327039
     H -17.437587  -0.750213   2.411327
     C -13.278373  -3.131490   3.916350
     H -11.804056  -3.119173   2.375299
     H  -8.694773  -0.981026   1.316968
     H -18.880587   0.279610   0.699875
     C -14.604928  -2.835481   4.261467
     H -16.481907  -2.063138   3.589486
     H -12.636572  -3.672336   4.612481
     H -14.983492  -3.102778   5.247355
     C -11.984784   4.686949  -3.608470
     C -12.334183   5.212902  -2.346619
     C -12.942841   4.396257  -4.563736
     H -10.940065   4.460573  -3.816200
     C -13.708968   5.442834  -2.037142
     C -11.325765   5.507674  -1.346973
     C -14.297898   4.598378  -4.261656
     H -12.649413   3.974359  -5.525342
     C -14.666991   5.093734  -3.022547
     C -14.091902   5.815427  -0.678977
     C  -9.967280   5.660358  -1.688631
     C -11.731327   5.699750   0.003507
     H -15.067847   4.319757  -4.978697
     H -15.726203   5.149774  -2.784095
     C -15.421587   6.294727  -0.324077
     C -13.146055   5.652358   0.345376
     C  -9.019452   6.015724  -0.746081
     H  -9.668010   5.558293  -2.729603
     C -10.746408   6.091367   0.941452
     C -16.255401   6.945755  -1.267831
     C -15.856435   6.254463   1.035703
     C -13.617362   5.416146   1.701344
     H  -7.976796   6.147199  -1.033528
     C  -9.419729   6.243391   0.576842
     H -11.049910   6.363196   1.949256
     C -17.485330   7.474271  -0.913947
     H -15.891588   7.104034  -2.280688
     C -14.981020   5.667905   2.037788
     C -17.114106   6.806273   1.370399
     C -12.802891   4.764798   2.660031
     H  -8.694773   6.581274   1.316968
     C -17.927464   7.394448   0.415434
     H -18.088425   7.994551  -1.659018
     C -15.440229   5.320153   3.327039
     H -17.437587   6.812087   2.411327
     C -13.278373   4.430810   3.916350
     H -11.804056   4.443127   2.375299
     H -18.880587   7.841910   0.699875
     C -14.604928   4.726819   4.261467
     H -16.481907   5.499162   3.589486
     H -12.636572   3.889964   4.612481
     H -14.983492   4.459522   5.247355
     C -12.549473   1.918600  -0.003508
     C -13.534392   2.310217  -0.941452
     C -12.955035   1.726524   1.346973
     C -11.134745   1.871208  -0.345376
     C -14.861071   2.462241  -0.576843
     H -13.230890   2.582046  -1.949257
     C -14.313520   1.879208   1.688631
     C -11.946617   1.431752   2.346619
     C -10.663438   1.634996  -1.701344
     C -10.188898   2.034277   0.678977
     H -15.586028   2.800124  -1.316968
     C -15.261348   2.234574   0.746080
     H -14.612790   1.777143   2.729603
     C -10.571832   1.661684   2.037142
     C -12.296016   0.905799   3.608470
     C -11.477909   0.983648  -2.660031
     C  -9.299780   1.886754  -2.037788
     C  -8.859213   2.513577   0.324077
     H -16.304005   2.366049   1.033528
     C  -9.613809   1.312584   3.022546
     H -13.340735   0.679423   3.816199
     C -11.337959   0.615107   4.563737
     H -12.476743   0.661978  -2.375299
     C -11.002428   0.649660  -3.916350
     C  -8.424365   2.473313  -1.035704
     C  -8.840571   1.539003  -3.327039
     C  -8.025399   3.164605   1.267831
     C  -9.982902   0.817228   4.261656
     H  -8.554597   1.368624   2.784095
     H -11.631387   0.193210   5.525342
     H -11.644228   0.108814  -4.612481
     C  -9.675872   0.945670  -4.261467
     C  -7.166694   3.025123  -1.370399
     H  -7.798893   1.718012  -3.589486
     C  -6.795470   3.693122   0.913947
     H  -8.389212   3.322884   2.280688
     H  -9.212954   0.538607   4.978697
     H  -9.297309   0.678372  -5.247355
     C  -6.353336   3.613297  -0.415434
     H  -6.843213   3.030937  -2.411328
     H  -6.192375   4.213401   1.659017
     H  -5.400214   4.060760  -0.699875
     C  -8.021336  -7.676160  -7.996805
     C  -7.621060  -7.903827  -9.319728
     H  -9.063993  -7.807635  -7.709358
     C  -7.073508  -7.320793  -7.054254
     C  -6.294379  -7.751803  -9.684338
     H  -8.346015  -8.241709 -10.059853
     C  -5.715023  -7.168109  -7.395913
     H  -7.372778  -7.218729  -6.013282
     H  -5.990878  -8.023632 -10.692142
     C  -5.309461  -7.360186  -8.746394
     C  -4.706605  -6.873338  -6.396266
     C  -3.894733  -7.312794  -9.088262
     C  -3.331820  -7.103269  -6.705744
     C  -5.056004  -6.347385  -5.134416
     C  -3.423426  -7.076582 -10.444230
     C  -2.948886  -7.475862  -8.063908
     C  -2.373797  -6.754170  -5.720339
     C  -4.097947  -6.056693  -4.179149
     H  -6.100723  -6.121008  -4.926686
     C  -4.237897  -6.425234 -11.402916
     C  -2.059769  -7.328340 -10.780673
     C  -1.619201  -7.955162  -8.418808
     C  -2.742890  -6.258813  -4.481229
     H  -1.314585  -6.810210  -5.958791
     H  -4.391375  -5.634795  -3.217544
     C  -3.762415  -6.091245 -12.659235
     H  -5.236731  -6.103563 -11.118185
     C  -1.184353  -7.914899  -9.778589
     C  -1.600559  -6.980589 -12.069924
     C  -0.785387  -8.606191  -7.475055
     H  -1.972941  -5.980192  -3.764189
     C  -2.435860  -6.387255 -13.004352
     H  -4.404216  -5.550399 -13.355367
     C   0.073318  -8.466709 -10.113285
     H  -0.558881  -7.159598 -12.332371
     C   0.444542  -9.134708  -7.828938
     H  -1.149200  -8.764470  -6.462198
     H  -2.057297  -6.119958 -13.990240
     C   0.886676  -9.054883  -9.158320
     H   0.396799  -8.472522 -11.154213
     H   1.047637  -9.654987  -7.083868
     H   1.839798  -9.502346  -9.442761
     C  -5.562879 -10.206384  -6.082855
     C  -6.377351 -10.857732  -7.041541
     C  -6.038360  -9.872396  -4.826536
     H  -4.564045  -9.884713  -6.367586
     C  -5.906043 -11.093944  -8.397509
     C  -7.741007 -11.109490  -6.705098
     C  -7.364916 -10.168405  -4.481418
     H  -5.396560  -9.331549  -4.130405
     C  -4.491315 -11.141336  -8.739377
     C  -6.851890 -11.257012  -9.421863
     C  -8.200217 -10.761739  -5.415847
     C  -8.616423 -11.696049  -7.707182
     H  -7.743480  -9.901108  -3.495531
     C  -4.085753 -10.949260 -10.089858
     C  -3.506397 -11.532953  -7.801433
     C  -6.468956 -10.884420 -10.780027
     C  -8.181575 -11.736312  -9.066963
     H  -9.241895 -10.940748  -5.153400
     C  -9.874094 -12.247860  -7.372486
     C  -5.094171 -10.654488 -11.089505
     C  -2.727268 -11.101943 -10.431517
     C  -2.179717 -11.684977  -8.166043
     H  -3.809898 -11.804782  -6.793629
     C  -7.426979 -10.535320 -11.765432
     C  -9.015389 -12.387342 -10.010716
     C -10.687452 -12.836034  -8.327451
     H -10.197575 -12.253673  -6.331558
     C  -4.744772 -10.128535 -12.351355
     C  -1.779440 -11.457310  -9.488966
     H  -2.427998 -10.999879 -11.472489
     H  -1.454761 -12.022860  -7.425918
     C  -7.057886 -10.039964 -13.004542
     H  -8.486191 -10.591360 -11.526980
     C -10.245318 -12.915858  -9.656833
     H  -8.651576 -12.545621 -11.023573
     H -11.640574 -13.283497  -8.043010
     C  -5.702829  -9.837843 -13.306622
     H  -3.700053  -9.902159 -12.559085
     H  -0.736783 -11.588785  -9.776413
     H  -7.827835  -9.761343 -13.721582
     H -10.848413 -13.436138 -10.401903
     H  -5.409401  -9.415945 -14.268228
     C  -1.568568  -9.681766  -2.037142
     C  -2.526591 -10.030866  -3.022547
     C  -0.193783  -9.911698  -2.346619
     C  -1.951502  -9.309173  -0.678977
     C  -2.157498 -10.526222  -4.261656
     H  -3.585803  -9.974826  -2.784095
     C   0.155616 -10.437651  -3.608470
     C   0.814635  -9.616926  -1.346973
     C  -3.281187  -8.829873  -0.324077
     C  -1.005655  -9.472242   0.345376
     C  -0.802441 -10.728343  -4.563736
     H  -2.927447 -10.804843  -4.978697
     H   1.200335 -10.664027  -3.816200
     C   2.173120  -9.464242  -1.688631
     C   0.409073  -9.424850   0.003507
     C  -4.115001  -8.178845  -1.267831
     C  -3.716035  -8.870137   1.035703
     C  -1.476962  -9.708454   1.701344
     H  -0.509013 -11.150241  -5.525342
     C   3.120948  -9.108876  -0.746081
     H   2.472390  -9.566307  -2.729603
     C   1.393992  -9.033233   0.941452
     C  -5.344930  -7.650329  -0.913947
     H  -3.751188  -8.020566  -2.280688
     C  -2.840620  -9.456695   2.037788
     C  -4.973706  -8.318327   1.370399
     C  -0.662491 -10.359802   2.660031
     H   4.163604  -8.977401  -1.033528
     C   2.720671  -8.881209   0.576842
     H   1.090490  -8.761404   1.949256
     C  -5.787064  -7.730152   0.415434
     H  -5.948025  -7.130049  -1.659018
     C  -3.299829  -9.804447   3.327039
     H  -5.297187  -8.312513   2.411327
     C  -1.137973 -10.693790   3.916350
     H   0.336344 -10.681473   2.375299
     H   3.445627  -8.543326   1.316968
     H  -6.740187  -7.282690   0.699875
     C  -2.464528 -10.397781   4.261467
     H  -4.341507  -9.625438   3.589486
     H  -0.496172 -11.234636   4.612481
     H  -2.843092 -10.665078   5.247355
     C  -8.634003  -7.751803   7.801433
     C  -9.960684  -7.903827   8.166043
     H  -8.330502  -8.023632   6.793629
     C  -7.649085  -7.360186   8.739377
     C -10.360960  -7.676160   9.488966
     H -10.685639  -8.241709   7.425918
     C  -8.054647  -7.168109  10.089858
     C  -6.234357  -7.312794   8.397509
     H -11.403617  -7.807635   9.776413
     C  -9.413132  -7.320793  10.431517
     C  -7.046229  -6.873338  11.089505
     C  -5.763050  -7.076582   7.041541
     C  -5.288510  -7.475862   9.421863
     H  -9.712402  -7.218729  11.472489
     C  -5.671444  -7.103269  10.780027
     C  -7.395628  -6.347385  12.351355
     C  -6.577521  -6.425234   6.082855
     C  -4.399393  -7.328340   6.705098
     C  -3.958825  -7.955162   9.066963
     C  -4.713421  -6.754170  11.765432
     C  -6.437571  -6.056693  13.306622
     H  -8.440347  -6.121008  12.559085
     C  -6.102039  -6.091245   4.826536
     H  -7.576355  -6.103563   6.367586
     C  -3.523977  -7.914899   7.707182
     C  -3.940183  -6.980589   5.415847
     C  -3.125011  -8.606191  10.010716
     C  -5.082514  -6.258813  13.004542
     H  -3.654209  -6.810210  11.526980
     H  -6.730999  -5.634795  14.268227
     C  -4.775484  -6.387255   4.481419
     H  -6.743840  -5.550399   4.130404
     C  -2.266306  -8.466709   7.372486
     H  -2.898505  -7.159598   5.153400
     C  -1.895082  -9.134708   9.656833
     H  -3.488824  -8.764470  11.023573
     H  -4.312565  -5.980192  13.721582
     H  -4.396921  -6.119958   3.495531
     C  -1.452948  -9.054883   8.327451
     H  -1.942825  -8.472522   6.331558
     H  -1.291987  -9.654987  10.401903
     H  -0.499826  -9.502346   8.043010
     H  -6.039677  -9.902159   4.926686
     C  -7.084396 -10.128535   5.134416
     C  -8.042453  -9.837843   4.179149
     C  -7.433795 -10.654488   6.396266
     C  -9.397510 -10.039964   4.481229
     H  -7.749025  -9.415945   3.217543
     C  -8.808580 -10.884420   6.705744
     C  -6.425377 -10.949260   7.395913
     C  -9.766603 -10.535320   5.720339
     H -10.167459  -9.761343   3.764189
     C  -9.191514 -11.257012   8.063908
     C  -5.066892 -11.101943   7.054254
     C  -6.830939 -11.141336   8.746394
     H -10.825815 -10.591360   5.958791
     C  -8.245667 -11.093944   9.088262
     C -10.521199 -11.736312   8.418808
     C  -4.119064 -11.457310   7.996805
     H  -4.767622 -10.999879   6.013282
     C  -5.846021 -11.532953   9.684338
     C  -8.716975 -10.857732  10.444230
     C -10.956047 -11.696049   9.778589
     C -11.355013 -12.387342   7.475055
     C  -4.519341 -11.684977   9.319728
     H  -3.076407 -11.588785   7.709358
     H  -6.149522 -11.804782  10.692142
     C  -7.902503 -10.206384  11.402916
     C -10.080631 -11.109490  10.780673
     C -12.213718 -12.247860  10.113285
     C -12.584942 -12.915858   7.828938
     H -10.991200 -12.545621   6.462198
     H  -3.794385 -12.022860  10.059853
     C  -8.377984  -9.872396  12.659235
     H  -6.903669  -9.884713  11.118185
     C -10.539841 -10.761739  12.069924
     C -13.027076 -12.836034   9.158320
     H -12.537199 -12.253673  11.154213
     H -13.188037 -13.436138   7.083868
     C  -9.704540 -10.168405  13.004353
     H  -7.736184  -9.331549  13.355366
     H -11.581519 -10.940748  12.332371
     H -13.980198 -13.283497   9.442761
     H -10.083104  -9.901108  13.990240
     C  -6.468956  -3.322120 -10.780027
     C  -7.426979  -2.973020 -11.765432
     C  -5.094171  -3.092188 -11.089505
     C  -6.851890  -3.694712  -9.421863
     C  -7.057886  -2.477664 -13.004542
     H  -8.486191  -3.029060 -11.526980
     C  -4.744772  -2.566235 -12.351355
     C  -4.085753  -3.386960 -10.089858
     C  -5.906043  -3.531644  -8.397509
     C  -8.181575  -4.174012  -9.066963
     C  -5.702829  -2.275543 -13.306622
     H  -7.827835  -2.199043 -13.721582
     H  -3.700053  -2.339859 -12.559085
     C  -2.727268  -3.539643 -10.431517
     C  -4.491315  -3.579036  -8.739377
     C  -6.377351  -3.295432  -7.041541
     C  -8.616423  -4.133749  -7.707182
     C  -9.015389  -4.825041 -10.010716
     H  -5.409401  -1.853645 -14.268228
     C  -1.779440  -3.895010  -9.488966
     H  -2.427998  -3.437579 -11.472489
     C  -3.506397  -3.970653  -7.801433
     C  -5.562879  -2.644084  -6.082855
     C  -7.741007  -3.547190  -6.705098
     C  -9.874094  -4.685559  -7.372486
     C -10.245318  -5.353557  -9.656833
     H  -8.651576  -4.983320 -11.023573
     C  -2.179717  -4.122677  -8.166043
     H  -0.736783  -4.026485  -9.776413
     H  -3.809898  -4.242482  -6.793629
     C  -6.038360  -2.310096  -4.826536
     H  -4.564045  -2.322413  -6.367586
     C  -8.200217  -3.199439  -5.415847
     C -10.687452  -5.273733  -8.327451
     H -10.197575  -4.691372  -6.331558
     H -10.848413  -5.873837 -10.401903
     H  -1.454761  -4.460560  -7.425918
     C  -7.364916  -2.606105  -4.481418
     H  -5.396560  -1.769249  -4.130405
     H  -9.241895  -3.378448  -5.153400
     H -11.640574  -5.721196  -8.043010
     H  -7.743480  -2.338808  -3.495531
     C  -8.021336  -0.113860  -7.996805
     C  -7.621060  -0.341527  -9.319728
     H  -9.063993  -0.245335  -7.709358
     C  -7.073508   0.241507  -7.054254
     C  -6.294379  -0.189503  -9.684338
     H  -8.346015  -0.679409 -10.059853
     C  -5.715023   0.394191  -7.395913
     H  -7.372778   0.343571  -6.013282
     H  -5.990878  -0.461332 -10.692142
     C  -5.309461   0.202114  -8.746394
     C  -4.706605   0.688962  -6.396266
     C  -3.894733   0.249506  -9.088262
     C  -3.331820   0.459031  -6.705744
     C  -5.056004   1.214915  -5.134416
     C  -3.423426   0.485718 -10.444230
     C  -2.948886   0.086438  -8.063908
     C  -2.373797   0.808130  -5.720339
     C  -4.097947   1.505607  -4.179149
     H  -6.100723   1.441292  -4.926686
     C  -4.237897   1.137066 -11.402916
     C  -2.059769   0.233960 -10.780673
     C  -1.619201  -0.392862  -8.418808
     C  -2.742890   1.303487  -4.481229
     H  -1.314585   0.752090  -5.958791
     H  -4.391375   1.927505  -3.217544
     C  -3.762415   1.471055 -12.659235
     H  -5.236731   1.458737 -11.118185
     C  -1.184353  -0.352599  -9.778589
     C  -1.600559   0.581711 -12.069924
     C  -0.785387  -1.043891  -7.475055
     H  -1.972941   1.582108  -3.764189
     C  -2.435860   1.175045 -13.004352
     H  -4.404216   2.011901 -13.355367
     C   0.073318  -0.904409 -10.113285
     H  -0.558881   0.402702 -12.332371
     C   0.444542  -1.572408  -7.828938
     H  -1.149200  -1.202170  -6.462198
     H  -2.057297   1.442342 -13.990240
     C   0.886676  -1.492583  -9.158320
     H   0.396799  -0.910222 -11.154213
     H   1.047637  -2.092687  -7.083868
     H   1.839798  -1.940046  -9.442761
     H   0.499826  -5.721196  -8.043010
     C   1.452948  -5.273733  -8.327451
     C   2.266306  -4.685559  -7.372486
     C   1.895082  -5.353557  -9.656833
     C   3.523977  -4.133749  -7.707182
     H   1.942825  -4.691372  -6.331558
     H   1.291987  -5.873837 -10.401903
     C   3.125011  -4.825041 -10.010716
     C   4.399393  -3.547190  -6.705098
     C   3.958825  -4.174012  -9.066963
     H   3.488824  -4.983320 -11.023573
     C   5.763049  -3.295432  -7.041541
     C   3.940183  -3.199439  -5.415847
     C   5.288510  -3.694712  -9.421863
     C   6.234357  -3.531644  -8.397509
     C   6.577521  -2.644084  -6.082855
     C   4.775484  -2.606105  -4.481418
     H   2.898505  -3.378448  -5.153400
     C   5.671444  -3.322120 -10.780027
     C   7.649085  -3.579036  -8.739377
     C   6.102040  -2.310096  -4.826536
     H   7.576355  -2.322413  -6.367586
     H   4.396920  -2.338808  -3.495531
     C   4.713421  -2.973020 -11.765432
     C   7.046229  -3.092188 -11.089505
     C   8.054647  -3.386960 -10.089858
     C   8.634003  -3.970653  -7.801433
     H   6.743840  -1.769249  -4.130405
     C   5.082514  -2.477664 -13.004542
     H   3.654209  -3.029060 -11.526980
     C   7.395628  -2.566235 -12.351355
     C   9.413132  -3.539643 -10.431517
     C   9.960683  -4.122677  -8.166043
     H   8.330502  -4.242482  -6.793629
     C   6.437571  -2.275543 -13.306622
     H   4.312565  -2.199043 -13.721582
     H   8.440347  -2.339859 -12.559085
     C  10.360960  -3.895010  -9.488966
     H   9.712402  -3.437579 -11.472489
     H  10.685639  -4.460560  -7.425918
     H   6.730999  -1.853645 -14.268228
     H  11.403617  -4.026485  -9.776413
     H -11.092763  -2.092687  -7.083868
     C -11.695858  -1.572408  -7.828938
     C -11.253724  -1.492583  -9.158320
     C -12.925787  -1.043891  -7.475055
     C -12.067082  -0.904409 -10.113285
     H -10.300602  -1.940046  -9.442761
     C -13.759601  -0.392862  -8.418808
     H -13.289600  -1.202170  -6.462198
     C -13.324753  -0.352599  -9.778589
     H -11.743601  -0.910222 -11.154213
     C -15.089286   0.086438  -8.063908
     C -14.200169   0.233960 -10.780673
     C -15.472220   0.459031  -6.705744
     C -16.035133   0.249506  -9.088262
     C -15.563826   0.485718 -10.444230
     C -13.740959   0.581711 -12.069924
     C -14.514197   0.808130  -5.720339
     C -16.847005   0.688962  -6.396266
     C -17.449861   0.202114  -8.746394
     C -16.378297   1.137066 -11.402916
     C -14.576260   1.175045 -13.004352
     H -12.699281   0.402702 -12.332371
     C -14.883290   1.303487  -4.481229
     H -13.454985   0.752090  -5.958791
     C -17.196404   1.214915  -5.134416
     C -17.855423   0.394191  -7.395913
     C -18.434779  -0.189503  -9.684338
     C -15.902815   1.471055 -12.659235
     H -17.377131   1.458737 -11.118185
     H -14.197697   1.442342 -13.990240
     C -16.238347   1.505607  -4.179149
     H -14.113341   1.582108  -3.764189
     H -18.241123   1.441292  -4.926686
     C -19.213908   0.241507  -7.054254
     C -19.761460  -0.341527  -9.319728
     H -18.131278  -0.461332 -10.692142
     H -16.544616   2.011901 -13.355367
     H -16.531775   1.927505  -3.217544
     C -20.161736  -0.113860  -7.996805
     H -19.513178   0.343571  -6.013282
     H -20.486415  -0.679409 -10.059853
     H -21.204393  -0.245335  -7.709358
     C -11.134745  -5.691092  -0.345376
     C -12.549473  -5.643700  -0.003508
     C -10.663438  -5.927304  -1.701344
     C -10.188898  -5.528023   0.678977
     C -13.534392  -5.252083  -0.941452
     C -12.955035  -5.835776   1.346973
     C -11.477909  -6.578652  -2.660031
     C  -9.299780  -5.675546  -2.037788
     C -10.571832  -5.900616   2.037142
     C  -8.859213  -5.048723   0.324077
     C -14.861071  -5.100059  -0.576843
     H -13.230890  -4.980254  -1.949257
     C -14.313520  -5.683092   1.688631
     C -11.946617  -6.130548   2.346619
     H -12.476743  -6.900322  -2.375299
     C -11.002428  -6.912640  -3.916350
     C  -8.424365  -5.088987  -1.035704
     C  -8.840571  -6.023297  -3.327039
     C  -9.613809  -6.249716   3.022546
     C  -8.025399  -4.397695   1.267831
     H -15.586028  -4.762176  -1.316968
     C -15.261348  -5.327726   0.746080
     H -14.612790  -5.785157   2.729603
     C -12.296016  -6.656501   3.608470
     H -11.644228  -7.453486  -4.612481
     C  -9.675872  -6.616630  -4.261467
     C  -7.166694  -4.537177  -1.370399
     H  -7.798893  -5.844288  -3.589486
     C  -9.982902  -6.745072   4.261656
     H  -8.554597  -6.193676   2.784095
     C  -6.795470  -3.869178   0.913947
     H  -8.389212  -4.239416   2.280688
     H -16.304005  -5.196251   1.033528
     H -13.340735  -6.882877   3.816199
     C -11.337959  -6.947193   4.563737
     H  -9.297309  -6.883928  -5.247355
     C  -6.353336  -3.949003  -0.415434
     H  -6.843213  -4.531363  -2.411328
     H  -9.212954  -7.023693   4.978697
     H  -6.192375  -3.348899   1.659017
     H -11.631387  -7.369090   5.525342
     H  -5.400214  -3.501540  -0.699875
     C  -0.409073  -5.643700  -0.003508
     C  -1.393992  -5.252083  -0.941452
     C  -0.814635  -5.835776   1.346973
     C   1.005655  -5.691092  -0.345376
     C  -2.720671  -5.100059  -0.576843
     H  -1.090490  -4.980254  -1.949257
     C  -2.173120  -5.683092   1.688631
     C   0.193783  -6.130548   2.346619
     C   1.476962  -5.927304  -1.701344
     C   1.951502  -5.528023   0.678977
     H  -3.445628  -4.762176  -1.316968
     C  -3.120948  -5.327726   0.746080
     H  -2.472390  -5.785157   2.729603
     C   1.568568  -5.900616   2.037142
     C  -0.155616  -6.656501   3.608470
     C   0.662491  -6.578652  -2.660031
     C   2.840620  -5.675546  -2.037788
     C   3.281187  -5.048723   0.324077
     H  -4.163605  -5.196251   1.033528
     C   2.526591  -6.249716   3.022546
     H  -1.200335  -6.882877   3.816199
     C   0.802441  -6.947193   4.563737
     H  -0.336343  -6.900322  -2.375299
     C   1.137972  -6.912640  -3.916350
     C   3.716035  -5.088987  -1.035704
     C   3.299829  -6.023297  -3.327039
     C   4.115001  -4.397695   1.267831
     C   2.157498  -6.745072   4.261656
     H   3.585803  -6.193676   2.784095
     H   0.509013  -7.369090   5.525342
     H   0.496172  -7.453486  -4.612481
     C   2.464528  -6.616630  -4.261467
     C   4.973706  -4.537177  -1.370399
     H   4.341507  -5.844288  -3.589486
     C   5.344930  -3.869178   0.913947
     H   3.751188  -4.239416   2.280688
     H   2.927446  -7.023693   4.978697
     H   2.843091  -6.883928  -5.247355
     C   5.787064  -3.949003  -0.415434
     H   5.297187  -4.531363  -2.411328
     H   5.948025  -3.348899   1.659017
     H   6.740186  -3.501540  -0.699875
     C  -0.124904  -2.835481 -13.224304
     C   1.201651  -3.131490 -13.569421
     C  -0.960205  -2.242147 -14.158732
     H  -0.503468  -3.102778 -12.238416
     C   1.677133  -2.797502 -14.825740
     H   1.843452  -3.672336 -12.873290
     C  -0.500996  -1.894395 -15.447983
     H  -2.001883  -2.063138 -13.896285
     C   0.862662  -2.146154 -15.784427
     H   2.675968  -3.119173 -15.110472
     C  -1.376411  -1.307837 -16.450068
     C   1.333969  -1.909942 -17.140395
     C  -0.941563  -1.267573 -17.809848
     C  -2.634082  -0.756027 -16.115372
     C   0.388122  -1.746873 -18.164748
     C   2.748697  -1.862550 -17.482264
     C  -1.775377  -0.616545 -18.753602
     C  -3.447440  -0.167852 -17.070337
     H  -2.957563  -0.750213 -15.074444
     C   0.771056  -2.119466 -19.522913
     C   3.154259  -2.054626 -18.832744
     C   3.733616  -1.470933 -16.544319
     C  -3.005306  -0.088029 -18.399718
     H  -1.411564  -0.458266 -19.766459
     H  -4.400563   0.279610 -16.785896
     C  -0.186967  -2.468566 -20.508318
     C   2.145841  -2.349398 -19.832390
     C   4.512744  -1.901942 -19.174402
     C   5.060295  -1.318909 -16.908929
     H   3.430114  -1.199104 -15.536515
     H  -3.608401   0.432251 -19.144789
     C   0.182126  -2.963922 -21.747427
     H  -1.246179  -2.412526 -20.269866
     C   2.495240  -2.875351 -21.094241
     C   5.460572  -1.546576 -18.231852
     H   4.812014  -2.004007 -20.215374
     H   5.785251  -0.981026 -16.168803
     C   1.537183  -3.166043 -22.049507
     H  -0.587823  -3.242543 -22.464468
     H   3.539959  -3.101727 -21.301971
     H   6.503228  -1.415101 -18.519299
     H   1.830611  -3.587941 -23.011113
     C  -8.808580  -3.322120   6.705744
     C  -9.766603  -2.973020   5.720339
     C  -7.433795  -3.092188   6.396266
     C  -9.191514  -3.694712   8.063908
     C  -9.397510  -2.477664   4.481229
     H -10.825815  -3.029060   5.958791
     C  -7.084396  -2.566235   5.134416
     C  -6.425377  -3.386960   7.395913
     C  -8.245667  -3.531644   9.088262
     C -10.521199  -4.174012   8.418808
     C  -8.042453  -2.275543   4.179149
     H -10.167459  -2.199043   3.764189
     H  -6.039677  -2.339859   4.926686
     C  -5.066892  -3.539643   7.054254
     C  -6.830939  -3.579036   8.746394
     C  -8.716975  -3.295432  10.444230
     C -10.956047  -4.133749   9.778589
     C -11.355013  -4.825041   7.475055
     H  -7.749025  -1.853645   3.217543
     C  -4.119064  -3.895010   7.996805
     H  -4.767622  -3.437579   6.013282
     C  -5.846021  -3.970653   9.684338
     C  -7.902503  -2.644084  11.402916
     C -10.080631  -3.547190  10.780673
     C -12.213718  -4.685559  10.113285
     C -12.584942  -5.353557   7.828938
     H -10.991200  -4.983320   6.462198
     C  -4.519341  -4.122677   9.319728
     H  -3.076407  -4.026485   7.709358
     H  -6.149522  -4.242482  10.692142
     C  -8.377984  -2.310096  12.659235
     H  -6.903669  -2.322413  11.118185
     C -10.539841  -3.199439  12.069924
     C -13.027076  -5.273733   9.158320
     H -12.537199  -4.691372  11.154213
     H -13.188037  -5.873837   7.083868
     H  -3.794385  -4.460560  10.059853
     C  -9.704540  -2.606105  13.004353
     H  -7.736184  -1.769249  13.355366
     H -11.581519  -3.378448  12.332371
     H -13.980198  -5.721196   9.442761
     H -10.083104  -2.338808  13.990240
     C  -9.960684  -0.341527   8.166043
     C -10.360960  -0.113860   9.488966
     C  -8.634003  -0.189503   7.801433
     H -10.685639  -0.679409   7.425918
     H -11.403617  -0.245335   9.776413
     C  -9.413132   0.241507  10.431517
     H  -8.330502  -0.461332   6.793629
     C  -7.649085   0.202114   8.739377
     C  -8.054647   0.394191  10.089858
     H  -9.712402   0.343571  11.472489
     C  -6.234357   0.249506   8.397509
     C  -7.046229   0.688962  11.089505
     C  -5.763050   0.485718   7.041541
     C  -5.288510   0.086438   9.421863
     C  -5.671444   0.459031  10.780027
     C  -7.395628   1.214915  12.351355
     C  -6.577521   1.137066   6.082855
     C  -4.399393   0.233960   6.705098
     C  -3.958825  -0.392862   9.066963
     C  -4.713421   0.808130  11.765432
     C  -6.437571   1.505607  13.306622
     H  -8.440347   1.441292  12.559085
     C  -6.102039   1.471055   4.826536
     H  -7.576355   1.458737   6.367586
     C  -3.523977  -0.352599   7.707182
     C  -3.940183   0.581711   5.415847
     C  -3.125011  -1.043891  10.010716
     C  -5.082514   1.303487  13.004542
     H  -3.654209   0.752090  11.526980
     H  -6.730999   1.927505  14.268227
     C  -4.775484   1.175045   4.481419
     H  -6.743840   2.011901   4.130404
     C  -2.266306  -0.904409   7.372486
     H  -2.898505   0.402702   5.153400
     C  -1.895082  -1.572408   9.656833
     H  -3.488824  -1.202170  11.023573
     H  -4.312565   1.582108  13.721582
     H  -4.396921   1.442342   3.495531
     C  -1.452948  -1.492583   8.327451
     H  -1.942825  -0.910222   6.331558
     H  -1.291987  -2.092687  10.401903
     H  -0.499826  -1.940046   8.043010
     H  -1.839798  -5.721196   9.442761
     C  -0.886676  -5.273733   9.158320
     C  -0.073318  -4.685559  10.113285
     C  -0.444542  -5.353557   7.828938
     C   1.184353  -4.133749   9.778589
     H  -0.396799  -4.691372  11.154213
     H  -1.047637  -5.873837   7.083868
     C   0.785387  -4.825041   7.475055
     C   2.059769  -3.547190  10.780673
     C   1.619201  -4.174012   8.418808
     H   1.149200  -4.983320   6.462198
     C   3.423425  -3.295432  10.444230
     C   1.600559  -3.199439  12.069924
     C   2.948886  -3.694712   8.063908
     C   3.894733  -3.531644   9.088262
     C   4.237897  -2.644084  11.402916
     C   2.435860  -2.606105  13.004353
     H   0.558881  -3.378448  12.332371
     C   3.331820  -3.322120   6.705744
     C   5.309461  -3.579036   8.746394
     C   3.762416  -2.310096  12.659235
     H   5.236731  -2.322413  11.118185
     H   2.057296  -2.338808  13.990240
     C   2.373797  -2.973020   5.720339
     C   4.706605  -3.092188   6.396266
     C   5.715023  -3.386960   7.395913
     C   6.294379  -3.970653   9.684338
     H   4.404216  -1.769249  13.355366
     C   2.742890  -2.477664   4.481229
     H   1.314585  -3.029060   5.958791
     C   5.056004  -2.566235   5.134416
     C   7.073508  -3.539643   7.054254
     C   7.621059  -4.122677   9.319728
     H   5.990878  -4.242482  10.692142
     C   4.097947  -2.275543   4.179149
     H   1.972941  -2.199043   3.764189
     H   6.100723  -2.339859   4.926686
     C   8.021336  -3.895010   7.996805
     H   7.372778  -3.437579   6.013282
     H   8.346015  -4.460560  10.059853
     H   4.391375  -1.853645   3.217543
     H   9.063993  -4.026485   7.709358
     C  -3.142065  -3.166043  12.922035
     C  -4.497122  -2.963922  13.224115
     C  -2.184008  -2.875351  13.877301
     H  -2.848637  -3.587941  11.960429
     C  -4.866215  -2.468566  14.463224
     H  -5.267071  -3.242543  12.507074
     C  -2.533407  -2.349398  15.139152
     H  -1.139289  -3.101727  13.669571
     C  -3.908192  -2.119466  15.448629
     H  -5.925427  -2.412526  14.701676
     C  -1.524989  -2.054626  16.138798
     C  -4.291126  -1.746873  16.806794
     C  -0.166504  -1.901942  15.797140
     C  -1.930551  -1.862550  17.489278
     C  -5.620811  -1.267573  17.161694
     C  -3.345279  -1.909942  17.831147
     C   0.781324  -1.546576  16.739690
     H   0.132766  -2.004007  14.756168
     C  -0.945632  -1.470933  18.427223
     C  -6.454625  -0.616545  16.217940
     C  -6.055659  -1.307837  18.521474
     C  -3.816586  -2.146154  19.187115
     H   1.823980  -1.415101  16.452243
     C   0.381047  -1.318909  18.062613
     H  -1.249134  -1.199104  19.435027
     C  -7.684554  -0.088029  16.571824
     H  -6.090812  -0.458266  15.205083
     C  -5.180244  -1.894395  19.523559
     C  -7.313330  -0.756027  18.856170
     C  -3.002115  -2.797502  20.145802
     H   1.106003  -0.981026  18.802739
     C  -8.126688  -0.167852  17.901205
     H  -8.287649   0.432251  15.826753
     C  -5.639453  -2.242147  20.812810
     H  -7.636811  -0.750213  19.897098
     C  -3.477597  -3.131490  21.402121
     H  -2.003280  -3.119173  19.861070
     H  -9.079811   0.279610  18.185646
     C  -4.804152  -2.835481  21.747238
     H  -6.681131  -2.063138  21.075257
     H  -2.835796  -3.672336  22.098252
     H  -5.182716  -3.102778  22.733126
     C  -2.727268   4.022657 -10.431517
     C  -4.085753   4.175340 -10.089858
     C  -1.779440   3.667290  -9.488966
     H  -2.427998   4.124721 -11.472489
     C  -5.094171   4.470112 -11.089505
     C  -4.491315   3.983264  -8.739377
     C  -2.179717   3.439623  -8.166043
     H  -0.736783   3.535815  -9.776413
     C  -6.468956   4.240180 -10.780027
     C  -4.744772   4.996065 -12.351355
     C  -3.506397   3.591647  -7.801433
     C  -5.906043   4.030656  -8.397509
     H  -1.454761   3.101740  -7.425918
     C  -7.426979   4.589280 -11.765432
     C  -6.851890   3.867588  -9.421863
     C  -5.702829   5.286757 -13.306622
     H  -3.700053   5.222441 -12.559085
     H  -3.809898   3.319818  -6.793629
     C  -6.377351   4.266868  -7.041541
     C  -7.057886   5.084636 -13.004542
     H  -8.486191   4.533240 -11.526980
     C  -8.181575   3.388288  -9.066963
     H  -5.409401   5.708655 -14.268228
     C  -5.562879   4.918216  -6.082855
     C  -7.741007   4.015110  -6.705098
     H  -7.827835   5.363257 -13.721582
     C  -8.616423   3.428551  -7.707182
     C  -9.015389   2.737259 -10.010716
     C  -6.038360   5.252204  -4.826536
     H  -4.564045   5.239887  -6.367586
     C  -8.200217   4.362861  -5.415847
     C  -9.874094   2.876741  -7.372486
     C -10.245318   2.208743  -9.656833
     H  -8.651576   2.578980 -11.023573
     C  -7.364916   4.956195  -4.481418
     H  -5.396560   5.793051  -4.130405
     H  -9.241895   4.183852  -5.153400
     C -10.687452   2.288567  -8.327451
     H -10.197575   2.870928  -6.331558
     H -10.848413   1.688463 -10.401903
     H  -7.743480   5.223492  -3.495531
     H -11.640574   1.841104  -8.043010
     C   0.886676   6.069717  -9.158320
     C   0.073318   6.657891 -10.113285
     C   0.444542   5.989892  -7.828938
     H   1.839798   5.622254  -9.442761
     C  -1.184353   7.209701  -9.778589
     H   0.396799   6.652078 -11.154213
     C  -0.785387   6.518409  -7.475055
     H   1.047637   5.469613  -7.083868
     C  -1.619201   7.169438  -8.418808
     C  -2.059769   7.796260 -10.780673
     H  -1.149200   6.360130  -6.462198
     C  -2.948886   7.648738  -8.063908
     C  -3.423426   8.048018 -10.444230
     C  -1.600559   8.144011 -12.069924
     C  -3.331820   8.021331  -6.705744
     C  -3.894733   7.811806  -9.088262
     C  -4.237897   8.699366 -11.402916
     C  -2.435860   8.737345 -13.004352
     H  -0.558881   7.965002 -12.332371
     C  -2.373797   8.370430  -5.720339
     C  -4.706605   8.251262  -6.396266
     C  -5.309461   7.764414  -8.746394
     C  -3.762415   9.033355 -12.659235
     H  -5.236731   9.021037 -11.118185
     H  -2.057297   9.004642 -13.990240
     C  -2.742890   8.865787  -4.481229
     H  -1.314585   8.314390  -5.958791
     C  -5.056004   8.777215  -5.134416
     C  -5.715023   7.956491  -7.395913
     C  -6.294379   7.372797  -9.684338
     H  -4.404216   9.574201 -13.355367
     C  -4.097947   9.067907  -4.179149
     H  -1.972941   9.144408  -3.764189
     H  -6.100723   9.003592  -4.926686
     C  -7.073508   7.803807  -7.054254
     C  -7.621060   7.220773  -9.319728
     H  -5.990878   7.100968 -10.692142
     H  -4.391375   9.489805  -3.217544
     C  -8.021336   7.448440  -7.996805
     H  -7.372778   7.905871  -6.013282
     H  -8.346015   6.882891 -10.059853
     H  -9.063993   7.316965  -7.709358
     H   0.499826   1.841104  -8.043010
     C   1.452948   2.288567  -8.327451
     C   2.266306   2.876741  -7.372486
     C   1.895082   2.208743  -9.656833
     C   3.523977   3.428551  -7.707182
     H   1.942825   2.870928  -6.331558
     H   1.291987   1.688463 -10.401903
     C   3.125011   2.737259 -10.010716
     C   4.399393   4.015110  -6.705098
     C   3.958825   3.388288  -9.066963
     H   3.488824   2.578980 -11.023573
     C   5.763049   4.266868  -7.041541
     C   3.940183   4.362861  -5.415847
     C   5.288510   3.867588  -9.421863
     C   6.234357   4.030656  -8.397509
     C   6.577521   4.918216  -6.082855
     C   4.775484   4.956195  -4.481418
     H   2.898505   4.183852  -5.153400
     C   5.671444   4.240180 -10.780027
     C   7.649085   3.983264  -8.739377
     C   6.102040   5.252204  -4.826536
     H   7.576355   5.239887  -6.367586
     H   4.396920   5.223492  -3.495531
     C   4.713421   4.589280 -11.765432
     C   7.046229   4.470112 -11.089505
     C   8.054647   4.175340 -10.089858
     C   8.634003   3.591647  -7.801433
     H   6.743840   5.793051  -4.130405
     C   5.082514   5.084636 -13.004542
     H   3.654209   4.533240 -11.526980
     C   7.395628   4.996065 -12.351355
     C   9.413132   4.022657 -10.431517
     C   9.960683   3.439623  -8.166043
     H   8.330502   3.319818  -6.793629
     C   6.437571   5.286757 -13.306622
     H   4.312565   5.363257 -13.721582
     H   8.440347   5.222441 -12.559085
     C  10.360960   3.667290  -9.488966
     H   9.712402   4.124721 -11.472489
     H  10.685639   3.101740  -7.425918
     H   6.730999   5.708655 -14.268228
     H  11.403617   3.535815  -9.776413
     C  -1.568568   5.442834  -2.037142
     C  -2.526591   5.093734  -3.022547
     C  -0.193783   5.212902  -2.346619
     C  -1.951502   5.815427  -0.678977
     C  -2.157498   4.598378  -4.261656
     H  -3.585803   5.149774  -2.784095
     C   0.155616   4.686949  -3.608470
     C   0.814635   5.507674  -1.346973
     C  -3.281187   6.294727  -0.324077
     C  -1.005655   5.652358   0.345376
     C  -0.802441   4.396257  -4.563736
     H  -2.927447   4.319757  -4.978697
     H   1.200335   4.460573  -3.816200
     C   2.173120   5.660358  -1.688631
     C   0.409073   5.699750   0.003507
     C  -4.115001   6.945755  -1.267831
     C  -3.716035   6.254463   1.035703
     C  -1.476962   5.416146   1.701344
     H  -0.509013   3.974359  -5.525342
     C   3.120948   6.015724  -0.746081
     H   2.472390   5.558293  -2.729603
     C   1.393992   6.091367   0.941452
     C  -5.344930   7.474271  -0.913947
     H  -3.751188   7.104034  -2.280688
     C  -2.840620   5.667905   2.037788
     C  -4.973706   6.806273   1.370399
     C  -0.662491   4.764798   2.660031
     H   4.163604   6.147199  -1.033528
     C   2.720671   6.243391   0.576842
     H   1.090490   6.363196   1.949256
     C  -5.787064   7.394448   0.415434
     H  -5.948025   7.994551  -1.659018
     C  -3.299829   5.320153   3.327039
     H  -5.297187   6.812087   2.411327
     C  -1.137973   4.430810   3.916350
     H   0.336344   4.443127   2.375299
     H   3.445627   6.581274   1.316968
     H  -6.740187   7.841910   0.699875
     C  -2.464528   4.726819   4.261467
     H  -4.341507   5.499162   3.589486
     H  -0.496172   3.889964   4.612481
     H  -2.843092   4.459522   5.247355
     C  -8.808580   4.240180   6.705744
     C  -9.766603   4.589280   5.720339
     C  -7.433795   4.470112   6.396266
     C  -9.191514   3.867588   8.063908
     C  -9.397510   5.084636   4.481229
     H -10.825815   4.533240   5.958791
     C  -7.084396   4.996065   5.134416
     C  -6.425377   4.175340   7.395913
     C  -8.245667   4.030656   9.088262
     C -10.521199   3.388288   8.418808
     C  -8.042453   5.286757   4.179149
     H -10.167459   5.363257   3.764189
     H  -6.039677   5.222441   4.926686
     C  -5.066892   4.022657   7.054254
     C  -6.830939   3.983264   8.746394
     C  -8.716975   4.266868  10.444230
     C -10.956047   3.428551   9.778589
     C -11.355013   2.737259   7.475055
     H  -7.749025   5.708655   3.217543
     C  -4.119064   3.667290   7.996805
     H  -4.767622   4.124721   6.013282
     C  -5.846021   3.591647   9.684338
     C  -7.902503   4.918216  11.402916
     C -10.080631   4.015110  10.780673
     C -12.213718   2.876741  10.113285
     C -12.584942   2.208743   7.828938
     H -10.991200   2.578980   6.462198
     C  -4.519341   3.439623   9.319728
     H  -3.076407   3.535815   7.709358
     H  -6.149522   3.319818  10.692142
     C  -8.377984   5.252204  12.659235
     H  -6.903669   5.239887  11.118185
     C -10.539841   4.362861  12.069924
     C -13.027076   2.288567   9.158320
     H -12.537199   2.870928  11.154213
     H -13.188037   1.688463   7.083868
     H  -3.794385   3.101740  10.059853
     C  -9.704540   4.956195  13.004353
     H  -7.736184   5.793051  13.355366
     H -11.581519   4.183852  12.332371
     H -13.980198   1.841104   9.442761
     H -10.083104   5.223492  13.990240
     C  -3.523977   7.209701   7.707182
     C  -2.266306   6.657891   7.372486
     C  -3.958825   7.169438   9.066963
     C  -4.399393   7.796260   6.705098
     C  -1.452948   6.069717   8.327451
     H  -1.942825   6.652078   6.331558
     C  -3.125011   6.518409  10.010716
     C  -5.288510   7.648738   9.421863
     C  -5.763050   8.048018   7.041541
     C  -3.940183   8.144011   5.415847
     C  -1.895082   5.989892   9.656833
     H  -0.499826   5.622254   8.043010
     H  -3.488824   6.360130  11.023573
     C  -5.671444   8.021331  10.780027
     C  -6.234357   7.811806   8.397509
     C  -6.577521   8.699366   6.082855
     C  -4.775484   8.737345   4.481419
     H  -2.898505   7.965002   5.153400
     H  -1.291987   5.469613  10.401903
     C  -4.713421   8.370430  11.765432
     C  -7.046229   8.251262  11.089505
     C  -7.649085   7.764414   8.739377
     C  -6.102039   9.033355   4.826536
     H  -7.576355   9.021037   6.367586
     H  -4.396921   9.004642   3.495531
     C  -5.082514   8.865787  13.004542
     H  -3.654209   8.314390  11.526980
     C  -7.395628   8.777215  12.351355
     C  -8.054647   7.956491  10.089858
     C  -8.634003   7.372797   7.801433
     H  -6.743840   9.574201   4.130404
     C  -6.437571   9.067907  13.306622
     H  -4.312565   9.144408  13.721582
     H  -8.440347   9.003592  12.559085
     C  -9.413132   7.803807  10.431517
     C  -9.960684   7.220773   8.166043
     H  -8.330502   7.100968   6.793629
     H  -6.730999   9.489805  14.268227
     C -10.360960   7.448440   9.488966
     H  -9.712402   7.905871  11.472489
     H -10.685639   6.882891   7.425918
     H -11.403617   7.316965   9.776413
     H  -1.839798   1.841104   9.442761
     C  -0.886676   2.288567   9.158320
     C  -0.073318   2.876741  10.113285
     C  -0.444542   2.208743   7.828938
     C   1.184353   3.428551   9.778589
     H  -0.396799   2.870928  11.154213
     H  -1.047637   1.688463   7.083868
     C   0.785387   2.737259   7.475055
     C   2.059769   4.015110  10.780673
     C   1.619201   3.388288   8.418808
     H   1.149200   2.578980   6.462198
     C   3.423425   4.266868  10.444230
     C   1.600559   4.362861  12.069924
     C   2.948886   3.867588   8.063908
     C   3.894733   4.030656   9.088262
     C   4.237897   4.918216  11.402916
     C   2.435860   4.956195  13.004353
     H   0.558881   4.183852  12.332371
     C   3.331820   4.240180   6.705744
     C   5.309461   3.983264   8.746394
     C   3.762416   5.252204  12.659235
     H   5.236731   5.239887  11.118185
     H   2.057296   5.223492  13.990240
     C   2.373797   4.589280   5.720339
     C   4.706605   4.470112   6.396266
     C   5.715023   4.175340   7.395913
     C   6.294379   3.591647   9.684338
     H   4.404216   5.793051  13.355366
     C   2.742890   5.084636   4.481229
     H   1.314585   4.533240   5.958791
     C   5.056004   4.996065   5.134416
     C   7.073508   4.022657   7.054254
     C   7.621059   3.439623   9.319728
     H   5.990878   3.319818  10.692142
     C   4.097947   5.286757   4.179149
     H   1.972941   5.363257   3.764189
     H   6.100723   5.222441   4.926686
     C   8.021336   3.667290   7.996805
     H   7.372778   4.124721   6.013282
     H   8.346015   3.101740  10.059853
     H   4.391375   5.708655   3.217543
     H   9.063993   3.535815   7.709358
     H  -1.843452   0.108814  12.873290
     C  -1.201652   0.649660  13.569421
     C  -1.677133   0.983648  14.825740
     C   0.124904   0.945670  13.224304
     H  -2.675967   0.661978  15.110472
     C  -0.862662   1.634996  15.784427
     C   0.960205   1.539003  14.158732
     H   0.503467   0.678372  12.238416
     C  -1.333969   1.871208  17.140395
     C   0.500996   1.886754  15.447983
     H   2.001883   1.718012  13.896285
     C  -2.748697   1.918600  17.482263
     C  -0.388122   2.034277  18.164748
     C   1.376411   2.473313  16.450067
     C  -3.733616   2.310217  16.544319
     C  -3.154259   1.726524  18.832744
     C  -0.771056   1.661684  19.522913
     C   0.941563   2.513577  17.809848
     C   2.634082   3.025123  16.115372
     C  -5.060295   2.462241  16.908928
     H  -3.430114   2.582046  15.536514
     C  -4.512744   1.879208  19.174402
     C  -2.145841   1.431752  19.832390
     C   0.186967   1.312584  20.508317
     C   1.775377   3.164605  18.753602
     C   3.447440   3.613297  17.070337
     H   2.957563   3.030937  15.074443
     H  -5.785252   2.800124  16.168803
     C  -5.460572   2.234574  18.231851
     H  -4.812014   1.777143  20.215374
     C  -2.495240   0.905799  21.094241
     C  -0.182126   0.817228  21.747427
     H   1.246179   1.368624  20.269866
     C   3.005306   3.693122  18.399718
     H   1.411564   3.322884  19.766459
     H   4.400562   4.060760  16.785896
     H  -6.503229   2.366049  18.519299
     H  -3.539959   0.679423  21.301970
     C  -1.537183   0.615107  22.049508
     H   0.587822   0.538607  22.464468
     H   3.608401   4.213401  19.144788
     H  -1.830611   0.193210  23.011113
     C  -0.409073   9.480900  -0.003508
     C  -1.393992   9.872517  -0.941452
     C  -0.814635   9.288824   1.346973
     C   1.005655   9.433508  -0.345376
     C  -2.720671  10.024541  -0.576843
     H  -1.090490  10.144346  -1.949257
     C  -2.173120   9.441508   1.688631
     C   0.193783   8.994052   2.346619
     C   1.476962   9.197296  -1.701344
     C   1.951502   9.596577   0.678977
     H  -3.445628  10.362424  -1.316968
     C  -3.120948   9.796874   0.746080
     H  -2.472390   9.339443   2.729603
     C   1.568568   9.223984   2.037142
     C  -0.155616   8.468099   3.608470
     C   0.662491   8.545948  -2.660031
     C   2.840620   9.449054  -2.037788
     C   3.281187  10.075877   0.324077
     H  -4.163605   9.928349   1.033528
     C   2.526591   8.874884   3.022546
     H  -1.200335   8.241723   3.816199
     C   0.802441   8.177407   4.563737
     H  -0.336343   8.224278  -2.375299
     C   1.137972   8.211960  -3.916350
     C   3.716035  10.035613  -1.035704
     C   3.299829   9.101303  -3.327039
     C   4.115001  10.726905   1.267831
     C   2.157498   8.379528   4.261656
     H   3.585803   8.930924   2.784095
     H   0.509013   7.755510   5.525342
     H   0.496172   7.671114  -4.612481
     C   2.464528   8.507970  -4.261467
     C   4.973706  10.587423  -1.370399
     H   4.341507   9.280312  -3.589486
     C   5.344930  11.255422   0.913947
     H   3.751188  10.885184   2.280688
     H   2.927446   8.100907   4.978697
     H   2.843091   8.240672  -5.247355
     C   5.787064  11.175597  -0.415434
     H   5.297187  10.593237  -2.411328
     H   5.948025  11.775701   1.659017
     H   6.740186  11.623060  -0.699875
     C   4.119064  -7.676160  -7.996805
     C   4.519340  -7.903827  -9.319728
     H   3.076407  -7.807635  -7.709358
     C   5.066892  -7.320793  -7.054254
     C   5.846021  -7.751803  -9.684338
     H   3.794385  -8.241709 -10.059853
     C   6.425377  -7.168109  -7.395913
     H   4.767622  -7.218729  -6.013282
     H   6.149522  -8.023632 -10.692142
     C   6.830939  -7.360186  -8.746394
     C   7.433795  -6.873338  -6.396266
     C   8.245667  -7.312794  -9.088262
     C   8.808580  -7.103269  -6.705744
     C   7.084396  -6.347385  -5.134416
     C   8.716974  -7.076582 -10.444230
     C   9.191514  -7.475862  -8.063908
     C   9.766603  -6.754170  -5.720339
     C   8.042453  -6.056693  -4.179149
     H   6.039677  -6.121008  -4.926686
     C   7.902503  -6.425234 -11.402916
     C  10.080631  -7.328340 -10.780673
     C  10.521199  -7.955162  -8.418808
     C   9.397510  -6.258813  -4.481229
     H  10.825815  -6.810210  -5.958791
     H   7.749025  -5.634795  -3.217544
     C   8.377985  -6.091245 -12.659235
     H   6.903669  -6.103563 -11.118185
     C  10.956047  -7.914899  -9.778589
     C  10.539841  -6.980589 -12.069924
     C  11.355013  -8.606191  -7.475055
     H  10.167459  -5.980192  -3.764189
     C   9.704540  -6.387255 -13.004352
     H   7.736184  -5.550399 -13.355367
     C  12.213718  -8.466709 -10.113285
     H  11.581519  -7.159598 -12.332371
     C  12.584942  -9.134708  -7.828938
     H  10.991200  -8.764470  -6.462198
     H  10.083103  -6.119958 -13.990240
     C  13.027076  -9.054883  -9.158320
     H  12.537199  -8.472522 -11.154213
     H  13.188037  -9.654987  -7.083868
     H  13.980198  -9.502346  -9.442761
     C   4.775484 -10.168405  -4.481418
     C   6.102040  -9.872396  -4.826536
     C   3.940183 -10.761739  -5.415847
     H   4.396920  -9.901108  -3.495531
     C   6.577521 -10.206384  -6.082855
     H   6.743840  -9.331549  -4.130405
     C   4.399393 -11.109490  -6.705098
     H   2.898505 -10.940748  -5.153400
     C   5.763049 -10.857732  -7.041541
     H   7.576355  -9.884713  -6.367586
     C   3.523977 -11.696049  -7.707182
     C   6.234357 -11.093944  -8.397509
     C   2.266306 -12.247860  -7.372486
     C   3.958825 -11.736312  -9.066963
     C   7.649085 -11.141336  -8.739377
     C   5.288510 -11.257012  -9.421863
     C   1.452948 -12.836034  -8.327451
     H   1.942825 -12.253673  -6.331558
     C   3.125011 -12.387342 -10.010716
     C   8.054647 -10.949260 -10.089858
     C   8.634003 -11.532953  -7.801433
     C   5.671444 -10.884420 -10.780027
     H   0.499826 -13.283497  -8.043010
     C   1.895082 -12.915858  -9.656833
     H   3.488824 -12.545621 -11.023573
     C   7.046229 -10.654488 -11.089505
     C   9.413132 -11.101943 -10.431517
     C   9.960683 -11.684977  -8.166043
     H   8.330502 -11.804782  -6.793629
     C   4.713421 -10.535320 -11.765432
     H   1.291987 -13.436138 -10.401903
     C   7.395628 -10.128535 -12.351355
     C  10.360960 -11.457310  -9.488966
     H   9.712402 -10.999879 -11.472489
     H  10.685639 -12.022860  -7.425918
     C   5.082514 -10.039964 -13.004542
     H   3.654209 -10.591360 -11.526980
     C   6.437571  -9.837843 -13.306622
     H   8.440347  -9.902159 -12.559085
     H  11.403617 -11.588785  -9.776413
     H   4.312565  -9.761343 -13.721582
     H   6.730999  -9.415945 -14.268228
     C   8.025399  -8.178845  -1.267831
     C   8.859213  -8.829873  -0.324077
     C   6.795470  -7.650329  -0.913947
     H   8.389212  -8.020566  -2.280688
     C  10.188898  -9.309173  -0.678977
     C   8.424365  -8.870137   1.035703
     C   6.353336  -7.730152   0.415434
     H   6.192375  -7.130049  -1.659018
     C  10.571832  -9.681766  -2.037142
     C  11.134745  -9.472242   0.345376
     C   9.299780  -9.456695   2.037788
     C   7.166694  -8.318327   1.370399
     H   5.400213  -7.282690   0.699875
     C   9.613809 -10.030866  -3.022547
     C  11.946617  -9.911698  -2.346619
     C  10.663438  -9.708454   1.701344
     C  12.549473  -9.424850   0.003507
     C   8.840571  -9.804447   3.327039
     H   6.843213  -8.312513   2.411327
     C   9.982902 -10.526222  -4.261656
     H   8.554597  -9.974826  -2.784095
     C  12.296016 -10.437651  -3.608470
     C  12.955035  -9.616926  -1.346973
     C  11.477909 -10.359802   2.660031
     C  13.534392  -9.033233   0.941452
     C   9.675872 -10.397781   4.261467
     H   7.798893  -9.625438   3.589486
     C  11.337959 -10.728343  -4.563736
     H   9.212953 -10.804843  -4.978697
     H  13.340735 -10.664027  -3.816200
     C  14.313520  -9.464242  -1.688631
     C  11.002427 -10.693790   3.916350
     H  12.476744 -10.681473   2.375299
     C  14.861071  -8.881209   0.576842
     H  13.230890  -8.761404   1.949256
     H   9.297308 -10.665078   5.247355
     H  11.631387 -11.150241  -5.525342
     C  15.261348  -9.108876  -0.746081
     H  14.612790  -9.566307  -2.729603
     H  11.644228 -11.234636   4.612481
     H  15.586027  -8.543326   1.316968
     H  16.304004  -8.977401  -1.033528
     C   2.373797 -10.535320   5.720339
     C   3.331820 -10.884420   6.705744
     C   2.742890 -10.039964   4.481229
     H   1.314585 -10.591360   5.958791
     C   4.706605 -10.654488   6.396266
     C   2.948886 -11.257012   8.063908
     C   4.097947  -9.837843   4.179149
     H   1.972941  -9.761343   3.764189
     C   5.056004 -10.128535   5.134416
     C   5.715023 -10.949260   7.395913
     C   3.894733 -11.093944   9.088262
     C   1.619201 -11.736312   8.418808
     H   4.391375  -9.415945   3.217543
     H   6.100723  -9.902159   4.926686
     C   7.073508 -11.101943   7.054254
     C   5.309461 -11.141336   8.746394
     C   3.423425 -10.857732  10.444230
     C   1.184353 -11.696049   9.778589
     C   0.785387 -12.387342   7.475055
     C   8.021336 -11.457310   7.996805
     H   7.372778 -10.999879   6.013282
     C   6.294379 -11.532953   9.684338
     C   4.237897 -10.206384  11.402916
     C   2.059769 -11.109490  10.780673
     C  -0.073318 -12.247860  10.113285
     C  -0.444542 -12.915858   7.828938
     H   1.149200 -12.545621   6.462198
     C   7.621059 -11.684977   9.319728
     H   9.063993 -11.588785   7.709358
     H   5.990878 -11.804782  10.692142
     C   3.762416  -9.872396  12.659235
     H   5.236731  -9.884713  11.118185
     C   1.600559 -10.761739  12.069924
     C  -0.886676 -12.836034   9.158320
     H  -0.396799 -12.253673  11.154213
     H  -1.047637 -13.436138   7.083868
     H   8.346015 -12.022860  10.059853
     C   2.435860 -10.168405  13.004353
     H   4.404216  -9.331549  13.355366
     H   0.558881 -10.940748  12.332371
     H  -1.839798 -13.283497   9.442761
     H   2.057296  -9.901108  13.990240
     C   1.779440  -7.676160   9.488966
     C   2.179716  -7.903827   8.166043
     H   0.736783  -7.807635   9.776413
     C   2.727268  -7.320793  10.431517
     C   3.506397  -7.751803   7.801433
     H   1.454761  -8.241709   7.425918
     C   4.085753  -7.168109  10.089858
     H   2.427998  -7.218729  11.472489
     H   3.809898  -8.023632   6.793629
     C   4.491315  -7.360186   8.739377
     C   5.094171  -6.873338  11.089505
     C   5.906043  -7.312794   8.397509
     C   6.468956  -7.103269  10.780027
     C   4.744772  -6.347385  12.351355
     C   6.377350  -7.076582   7.041541
     C   6.851890  -7.475862   9.421863
     C   7.426979  -6.754170  11.765432
     C   5.702829  -6.056693  13.306622
     H   3.700053  -6.121008  12.559085
     C   5.562879  -6.425234   6.082855
     C   7.741007  -7.328340   6.705098
     C   8.181575  -7.955162   9.066963
     C   7.057886  -6.258813  13.004542
     H   8.486191  -6.810210  11.526980
     H   5.409401  -5.634795  14.268227
     C   6.038361  -6.091245   4.826536
     H   4.564045  -6.103563   6.367586
     C   8.616423  -7.914899   7.707182
     C   8.200217  -6.980589   5.415847
     C   9.015389  -8.606191  10.010716
     H   7.827835  -5.980192  13.721582
     C   7.364916  -6.387255   4.481419
     H   5.396560  -5.550399   4.130404
     C   9.874094  -8.466709   7.372486
     H   9.241895  -7.159598   5.153400
     C  10.245318  -9.134708   9.656833
     H   8.651576  -8.764470  11.023573
     H   7.743479  -6.119958   3.495531
     C  10.687452  -9.054883   8.327451
     H  10.197575  -8.472522   6.331558
     H  10.848413  -9.654987  10.401903
     H  11.640574  -9.502346   8.043010
     C   4.119064  -0.113860  -7.996805
     C   4.519340  -0.341527  -9.319728
     H   3.076407  -0.245335  -7.709358
     C   5.066892   0.241507  -7.054254
     C   5.846021  -0.189503  -9.684338
     H   3.794385  -0.679409 -10.059853
     C   6.425377   0.394191  -7.395913
     H   4.767622   0.343571  -6.013282
     H   6.149522  -0.461332 -10.692142
     C   6.830939   0.202114  -8.746394
     C   7.433795   0.688962  -6.396266
     C   8.245667   0.249506  -9.088262
     C   8.808580   0.459031  -6.705744
     C   7.084396   1.214915  -5.134416
     C   8.716974   0.485718 -10.444230
     C   9.191514   0.086438  -8.063908
     C   9.766603   0.808130  -5.720339
     C   8.042453   1.505607  -4.179149
     H   6.039677   1.441292  -4.926686
     C   7.902503   1.137066 -11.402916
     C  10.080631   0.233960 -10.780673
     C  10.521199  -0.392862  -8.418808
     C   9.397510   1.303487  -4.481229
     H  10.825815   0.752090  -5.958791
     H   7.749025   1.927505  -3.217544
     C   8.377985   1.471055 -12.659235
     H   6.903669   1.458737 -11.118185
     C  10.956047  -0.352599  -9.778589
     C  10.539841   0.581711 -12.069924
     C  11.355013  -1.043891  -7.475055
     H  10.167459   1.582108  -3.764189
     C   9.704540   1.175045 -13.004352
     H   7.736184   2.011901 -13.355367
     C  12.213718  -0.904409 -10.113285
     H  11.581519   0.402702 -12.332371
     C  12.584942  -1.572408  -7.828938
     H  10.991200  -1.202170  -6.462198
     H  10.083103   1.442342 -13.990240
     C  13.027076  -1.492583  -9.158320
     H  12.537199  -0.910222 -11.154213
     H  13.188037  -2.092687  -7.083868
     H  13.980198  -1.940046  -9.442761
     C  10.571832  -2.119466  -2.037142
     C   9.613809  -2.468566  -3.022547
     C  11.946617  -2.349398  -2.346619
     C  10.188898  -1.746873  -0.678977
     C   9.982902  -2.963922  -4.261656
     H   8.554597  -2.412526  -2.784095
     C  12.296016  -2.875351  -3.608470
     C  12.955035  -2.054626  -1.346973
     C   8.859213  -1.267573  -0.324077
     C  11.134745  -1.909942   0.345376
     C  11.337959  -3.166043  -4.563736
     H   9.212953  -3.242543  -4.978697
     H  13.340735  -3.101727  -3.816200
     C  14.313520  -1.901942  -1.688631
     C  12.549473  -1.862550   0.003507
     C   8.025399  -0.616545  -1.267831
     C   8.424365  -1.307837   1.035703
     C  10.663438  -2.146154   1.701344
     H  11.631387  -3.587941  -5.525342
     C  15.261348  -1.546576  -0.746081
     H  14.612790  -2.004007  -2.729603
     C  13.534392  -1.470933   0.941452
     C   6.795470  -0.088029  -0.913947
     H   8.389212  -0.458266  -2.280688
     C   9.299780  -1.894395   2.037788
     C   7.166694  -0.756027   1.370399
     C  11.477909  -2.797502   2.660031
     H  16.304004  -1.415101  -1.033528
     C  14.861071  -1.318909   0.576842
     H  13.230890  -1.199104   1.949256
     C   6.353336  -0.167852   0.415434
     H   6.192375   0.432251  -1.659018
     C   8.840571  -2.242147   3.327039
     H   6.843213  -0.750213   2.411327
     C  11.002427  -3.131490   3.916350
     H  12.476744  -3.119173   2.375299
     H  15.586027  -0.981026   1.316968
     H   5.400213   0.279610   0.699875
     C   9.675872  -2.835481   4.261467
     H   7.798893  -2.063138   3.589486
     H  11.644228  -3.672336   4.612481
     H   9.297308  -3.102778   5.247355
     C  10.746408  -5.252083  -0.941452
     C  11.731327  -5.643700  -0.003508
     C   9.419729  -5.100059  -0.576843
     H  11.049910  -4.980254  -1.949257
     C  11.325765  -5.835776   1.346973
     C  13.146055  -5.691092  -0.345376
     H   8.694772  -4.762176  -1.316968
     C   9.019452  -5.327726   0.746080
     C   9.967280  -5.683092   1.688631
     C  12.334183  -6.130548   2.346619
     C  13.617362  -5.927304  -1.701344
     C  14.091902  -5.528023   0.678977
     H   7.976795  -5.196251   1.033528
     H   9.668010  -5.785157   2.729603
     C  13.708968  -5.900616   2.037142
     C  11.984784  -6.656501   3.608470
     C  12.802891  -6.578652  -2.660031
     C  14.981020  -5.675546  -2.037788
     C  15.421587  -5.048723   0.324077
     C  14.666991  -6.249716   3.022546
     H  10.940065  -6.882877   3.816199
     C  12.942841  -6.947193   4.563737
     H  11.804057  -6.900322  -2.375299
     C  13.278372  -6.912640  -3.916350
     C  15.856435  -5.088987  -1.035704
     C  15.440229  -6.023297  -3.327039
     C  16.255401  -4.397695   1.267831
     C  14.297898  -6.745072   4.261656
     H  15.726203  -6.193676   2.784095
     H  12.649413  -7.369090   5.525342
     H  12.636572  -7.453486  -4.612481
     C  14.604928  -6.616630  -4.261467
     C  17.114106  -4.537177  -1.370399
     H  16.481907  -5.844288  -3.589486
     C  17.485330  -3.869178   0.913947
     H  15.891588  -4.239416   2.280688
     H  15.067846  -7.023693   4.978697
     H  14.983491  -6.883928  -5.247355
     C  17.927464  -3.949003  -0.415434
     H  17.437587  -4.531363  -2.411328
     H  18.088425  -3.348899   1.659017
     H  18.880586  -3.501540  -0.699875
     C   1.779440  -0.113860   9.488966
     C   2.179716  -0.341527   8.166043
     H   0.736783  -0.245335   9.776413
     C   2.727268   0.241507  10.431517
     C   3.506397  -0.189503   7.801433
     H   1.454761  -0.679409   7.425918
     C   4.085753   0.394191  10.089858
     H   2.427998   0.343571  11.472489
     H   3.809898  -0.461332   6.793629
     C   4.491315   0.202114   8.739377
     C   5.094171   0.688962  11.089505
     C   5.906043   0.249506   8.397509
     C   6.468956   0.459031  10.780027
     C   4.744772   1.214915  12.351355
     C   6.377350   0.485718   7.041541
     C   6.851890   0.086438   9.421863
     C   7.426979   0.808130  11.765432
     C   5.702829   1.505607  13.306622
     H   3.700053   1.441292  12.559085
     C   5.562879   1.137066   6.082855
     C   7.741007   0.233960   6.705098
     C   8.181575  -0.392862   9.066963
     C   7.057886   1.303487  13.004542
     H   8.486191   0.752090  11.526980
     H   5.409401   1.927505  14.268227
     C   6.038361   1.471055   4.826536
     H   4.564045   1.458737   6.367586
     C   8.616423  -0.352599   7.707182
     C   8.200217   0.581711   5.415847
     C   9.015389  -1.043891  10.010716
     H   7.827835   1.582108  13.721582
     C   7.364916   1.175045   4.481419
     H   5.396560   2.011901   4.130404
     C   9.874094  -0.904409   7.372486
     H   9.241895   0.402702   5.153400
     C  10.245318  -1.572408   9.656833
     H   8.651576  -1.202170  11.023573
     H   7.743479   1.442342   3.495531
     C  10.687452  -1.492583   8.327451
     H  10.197575  -0.910222   6.331558
     H  10.848413  -2.092687  10.401903
     H  11.640574  -1.940046   8.043010
     C   4.119064   7.448440  -7.996805
     C   4.519340   7.220773  -9.319728
     H   3.076407   7.316965  -7.709358
     C   5.066892   7.803807  -7.054254
     C   5.846021   7.372797  -9.684338
     H   3.794385   6.882891 -10.059853
     C   6.425377   7.956491  -7.395913
     H   4.767622   7.905871  -6.013282
     H   6.149522   7.100968 -10.692142
     C   6.830939   7.764414  -8.746394
     C   7.433795   8.251262  -6.396266
     C   8.245667   7.811806  -9.088262
     C   8.808580   8.021331  -6.705744
     C   7.084396   8.777215  -5.134416
     C   8.716974   8.048018 -10.444230
     C   9.191514   7.648738  -8.063908
     C   9.766603   8.370430  -5.720339
     C   8.042453   9.067907  -4.179149
     H   6.039677   9.003592  -4.926686
     C   7.902503   8.699366 -11.402916
     C  10.080631   7.796260 -10.780673
     C  10.521199   7.169438  -8.418808
     C   9.397510   8.865787  -4.481229
     H  10.825815   8.314390  -5.958791
     H   7.749025   9.489805  -3.217544
     C   8.377985   9.033355 -12.659235
     H   6.903669   9.021037 -11.118185
     C  10.956047   7.209701  -9.778589
     C  10.539841   8.144011 -12.069924
     C  11.355013   6.518409  -7.475055
     H  10.167459   9.144408  -3.764189
     C   9.704540   8.737345 -13.004352
     H   7.736184   9.574201 -13.355367
     C  12.213718   6.657891 -10.113285
     H  11.581519   7.965002 -12.332371
     C  12.584942   5.989892  -7.828938
     H  10.991200   6.360130  -6.462198
     H  10.083103   9.004642 -13.990240
     C  13.027076   6.069717  -9.158320
     H  12.537199   6.652078 -11.154213
     H  13.188037   5.469613  -7.083868
     H  13.980198   5.622254  -9.442761
     C  10.571832   5.442834  -2.037142
     C   9.613809   5.093734  -3.022547
     C  11.946617   5.212902  -2.346619
     C  10.188898   5.815427  -0.678977
     C   9.982902   4.598378  -4.261656
     H   8.554597   5.149774  -2.784095
     C  12.296016   4.686949  -3.608470
     C  12.955035   5.507674  -1.346973
     C   8.859213   6.294727  -0.324077
     C  11.134745   5.652358   0.345376
     C  11.337959   4.396257  -4.563736
     H   9.212953   4.319757  -4.978697
     H  13.340735   4.460573  -3.816200
     C  14.313520   5.660358  -1.688631
     C  12.549473   5.699750   0.003507
     C   8.025399   6.945755  -1.267831
     C   8.424365   6.254463   1.035703
     C  10.663438   5.416146   1.701344
     H  11.631387   3.974359  -5.525342
     C  15.261348   6.015724  -0.746081
     H  14.612790   5.558293  -2.729603
     C  13.534392   6.091367   0.941452
     C   6.795470   7.474271  -0.913947
     H   8.389212   7.104034  -2.280688
     C   9.299780   5.667905   2.037788
     C   7.166694   6.806273   1.370399
     C  11.477909   4.764798   2.660031
     H  16.304004   6.147199  -1.033528
     C  14.861071   6.243391   0.576842
     H  13.230890   6.363196   1.949256
     C   6.353336   7.394448   0.415434
     H   6.192375   7.994551  -1.659018
     C   8.840571   5.320153   3.327039
     H   6.843213   6.812087   2.411327
     C  11.002427   4.430810   3.916350
     H  12.476744   4.443127   2.375299
     H  15.586027   6.581274   1.316968
     H   5.400213   7.841910   0.699875
     C   9.675872   4.726819   4.261467
     H   7.798893   5.499162   3.589486
     H  11.644228   3.889964   4.612481
     H   9.297308   4.459522   5.247355
     C   3.142065   0.615107 -12.922034
     C   4.497122   0.817228 -13.224115
     C   2.184008   0.905799 -13.877301
     H   2.848637   0.193210 -11.960429
     C   4.866215   1.312584 -14.463225
     H   5.267070   0.538607 -12.507074
     H   1.139289   0.679423 -13.669572
     C   2.533407   1.431752 -15.139152
     C   3.908192   1.661684 -15.448629
     H   5.925427   1.368624 -14.701676
     C   1.524989   1.726524 -16.138798
     C   4.291126   2.034277 -16.806794
     C   1.930551   1.918600 -17.489279
     C   0.166504   1.879208 -15.797140
     C   3.345279   1.871208 -17.831147
     C   5.620811   2.513577 -17.161694
     C   0.945632   2.310217 -18.427223
     C  -0.781324   2.234574 -16.739691
     H  -0.132766   1.777143 -14.756168
     C   3.816586   1.634996 -19.187115
     C   6.055659   2.473313 -18.521475
     C   6.454625   3.164605 -16.217940
     C  -0.381047   2.462241 -18.062614
     H   1.249134   2.582046 -19.435028
     H  -1.823981   2.366049 -16.452243
     C   3.002115   0.983648 -20.145802
     C   5.180244   1.886754 -19.523559
     C   7.313330   3.025123 -18.856170
     C   7.684554   3.693122 -16.571824
     H   6.090812   3.322884 -15.205083
     H  -1.106004   2.800124 -18.802739
     H   2.003281   0.661978 -19.861070
     C   3.477596   0.649660 -21.402121
     C   5.639453   1.539003 -20.812810
     C   8.126688   3.613297 -17.901205
     H   7.636811   3.030937 -19.897099
     H   8.287649   4.213401 -15.826754
     H   2.835796   0.108814 -22.098252
     C   4.804152   0.945670 -21.747238
     H   6.681131   1.718012 -21.075257
     H   9.079810   4.060760 -18.185646
     H   5.182715   0.678372 -22.733126
     C  11.731327   1.918600  -0.003508
     C  10.746408   2.310217  -0.941452
     C  11.325765   1.726524   1.346973
     C  13.146055   1.871208  -0.345376
     C   9.419729   2.462241  -0.576843
     H  11.049910   2.582046  -1.949257
     C   9.967280   1.879208   1.688631
     C  12.334183   1.431752   2.346619
     C  13.617362   1.634996  -1.701344
     C  14.091902   2.034277   0.678977
     H   8.694772   2.800124  -1.316968
     C   9.019452   2.234574   0.746080
     H   9.668010   1.777143   2.729603
     C  13.708968   1.661684   2.037142
     C  11.984784   0.905799   3.608470
     C  12.802891   0.983648  -2.660031
     C  14.981020   1.886754  -2.037788
     C  15.421587   2.513577   0.324077
     H   7.976795   2.366049   1.033528
     C  14.666991   1.312584   3.022546
     H  10.940065   0.679423   3.816199
     C  12.942841   0.615107   4.563737
     H  11.804057   0.661978  -2.375299
     C  13.278372   0.649660  -3.916350
     C  15.856435   2.473313  -1.035704
     C  15.440229   1.539003  -3.327039
     C  16.255401   3.164605   1.267831
     C  14.297898   0.817228   4.261656
     H  15.726203   1.368624   2.784095
     H  12.649413   0.193210   5.525342
     H  12.636572   0.108814  -4.612481
     C  14.604928   0.945670  -4.261467
     C  17.114106   3.025123  -1.370399
     H  16.481907   1.718012  -3.589486
     C  17.485330   3.693122   0.913947
     H  15.891588   3.322884   2.280688
     H  15.067846   0.538607   4.978697
     H  14.983491   0.678372  -5.247355
     C  17.927464   3.613297  -0.415434
     H  17.437587   3.030937  -2.411328
     H  18.088425   4.213401   1.659017
     H  18.880586   4.060760  -0.699875
     C   2.179716   7.220773   8.166043
     C   1.779440   7.448440   9.488966
     C   3.506397   7.372797   7.801433
     H   1.454761   6.882891   7.425918
     H   0.736783   7.316965   9.776413
     C   2.727268   7.803807  10.431517
     H   3.809898   7.100968   6.793629
     C   4.491315   7.764414   8.739377
     C   4.085753   7.956491  10.089858
     H   2.427998   7.905871  11.472489
     C   5.906043   7.811806   8.397509
     C   5.094171   8.251262  11.089505
     C   6.377350   8.048018   7.041541
     C   6.851890   7.648738   9.421863
     C   6.468956   8.021331  10.780027
     C   4.744772   8.777215  12.351355
     C   5.562879   8.699366   6.082855
     C   7.741007   7.796260   6.705098
     C   8.181575   7.169438   9.066963
     C   7.426979   8.370430  11.765432
     C   5.702829   9.067907  13.306622
     H   3.700053   9.003592  12.559085
     C   6.038361   9.033355   4.826536
     H   4.564045   9.021037   6.367586
     C   8.616423   7.209701   7.707182
     C   8.200217   8.144011   5.415847
     C   9.015389   6.518409  10.010716
     C   7.057886   8.865787  13.004542
     H   8.486191   8.314390  11.526980
     H   5.409401   9.489805  14.268227
     C   7.364916   8.737345   4.481419
     H   5.396560   9.574201   4.130404
     C   9.874094   6.657891   7.372486
     H   9.241895   7.965002   5.153400
     C  10.245318   5.989892   9.656833
     H   8.651576   6.360130  11.023573
     H   7.827835   9.144408  13.721582
     H   7.743479   9.004642   3.495531
     C  10.687452   6.069717   8.327451
     H  10.197575   6.652078   6.331558
     H  10.848413   5.469613  10.401903
     H  11.640574   5.622254   8.043010
     H  11.092763   1.688463   7.083868
     C  11.695858   2.208743   7.828938
     C  11.253724   2.288567   9.158320
     C  12.925787   2.737259   7.475055
     H  10.300602   1.841104   9.442761
     C  12.067082   2.876741  10.113285
     C  13.759601   3.388288   8.418808
     H  13.289600   2.578980   6.462198
     C  13.324753   3.428551   9.778589
     H  11.743601   2.870928  11.154213
     C  15.089286   3.867588   8.063908
     C  14.200169   4.015110  10.780673
     C  15.472220   4.240180   6.705744
     C  16.035133   4.030656   9.088262
     C  15.563825   4.266868  10.444230
     C  13.740959   4.362861  12.069924
     C  14.514197   4.589280   5.720339
     C  16.847005   4.470112   6.396266
     C  17.449861   3.983264   8.746394
     C  16.378297   4.918216  11.402916
     C  14.576260   4.956195  13.004353
     H  12.699281   4.183852  12.332371
     C  14.883290   5.084636   4.481229
     H  13.454985   4.533240   5.958791
     C  17.196404   4.996065   5.134416
     C  17.855423   4.175340   7.395913
     C  18.434779   3.591647   9.684338
     C  15.902816   5.252204  12.659235
     H  17.377131   5.239887  11.118185
     H  14.197696   5.223492  13.990240
     C  16.238347   5.286757   4.179149
     H  14.113341   5.363257   3.764189
     H  18.241123   5.222441   4.926686
     C  19.213908   4.022657   7.054254
     C  19.761459   3.439623   9.319728
     H  18.131278   3.319818  10.692142
     H  16.544616   5.793051  13.355366
     H  16.531775   5.708655   3.217543
     C  20.161736   3.667290   7.996805
     H  19.513178   4.124721   6.013282
     H  20.486415   3.101740  10.059853
     H  21.204393   3.535815   7.709358
     C  11.731327   9.480900  -0.003508
     C  10.746408   9.872517  -0.941452
     C  11.325765   9.288824   1.346973
     C  13.146055   9.433508  -0.345376
     C   9.419729  10.024541  -0.576843
     H  11.049910  10.144346  -1.949257
     C   9.967280   9.441508   1.688631
     C  12.334183   8.994052   2.346619
     C  13.617362   9.197296  -1.701344
     C  14.091902   9.596577   0.678977
     H   8.694772  10.362424  -1.316968
     C   9.019452   9.796874   0.746080
     H   9.668010   9.339443   2.729603
     C  13.708968   9.223984   2.037142
     C  11.984784   8.468099   3.608470
     C  12.802891   8.545948  -2.660031
     C  14.981020   9.449054  -2.037788
     C  15.421587  10.075877   0.324077
     H   7.976795   9.928349   1.033528
     C  14.666991   8.874884   3.022546
     H  10.940065   8.241723   3.816199
     C  12.942841   8.177407   4.563737
     H  11.804057   8.224278  -2.375299
     C  13.278372   8.211960  -3.916350
     C  15.856435  10.035613  -1.035704
     C  15.440229   9.101303  -3.327039
     C  16.255401  10.726905   1.267831
     C  14.297898   8.379528   4.261656
     H  15.726203   8.930924   2.784095
     H  12.649413   7.755510   5.525342
     H  12.636572   7.671114  -4.612481
     C  14.604928   8.507970  -4.261467
     C  17.114106  10.587423  -1.370399
     H  16.481907   9.280312  -3.589486
     C  17.485330  11.255422   0.913947
     H  15.891588  10.885184   2.280688
     H  15.067846   8.100907   4.978697
     H  14.983491   8.240672  -5.247355
     C  17.927464  11.175597  -0.415434
     H  17.437587  10.593237  -2.411328
     H  18.088425  11.775701   1.659017
     H  18.880586  11.623060  -0.699875
