 &inputpp
    prefix  = '2HC1'
    outdir = './'
    filplot = '2HC1char'
    plot_num= 0
 /
 &plot
    nfile = 1
    filepp(1) = '2HC1char'
    weight(1) = 1.0
    iflag = 3
    output_format = 6
    fileout = '2HC1.cube'
 /
