 &inputpp
    prefix  = 'naphthalene222'
    outdir = './'
    filplot = 'naphthalene222char'
    plot_num= 0
 /
 &plot
    nfile = 1
    filepp(1) = 'naphthalene222char'
    weight(1) = 1.0
    iflag = 3
    output_format = 6
    fileout = 'naphthalene222.cube'
 /
