 &inputpp
    prefix  = 'XXX__NAME__XXX'
    outdir = './'
    filplot = 'XXX__NAME__XXXchar'
    plot_num= 0
 /
 &plot
    nfile = 1
    filepp(1) = 'XXX__NAME__XXXchar'
    weight(1) = 1.0
    iflag = 3
    output_format = 6
    fileout = 'XXX__NAME__XXX.cube'
 /
