%chk=2HC1.clust.chk
%mem=2GB
%nproc=4
#wb97xd 6-311++g** opt td(nstates=1,root=1)

2HC1.clust

0 1
     C   0.383249  -1.689180  -4.138443
     C  -0.734704  -2.514088  -4.464457
     H   0.307561  -0.951826  -3.343518
     C   1.575460  -1.812061  -4.813986
     C  -0.569078  -3.451491  -5.521073
     N  -1.908599  -2.409698  -3.789979
     C   1.749454  -2.747041  -5.864624
     H   2.399958  -1.158734  -4.525873
     C   0.631008  -3.551312  -6.190695
     H  -1.397252  -4.088431  -5.821633
     C  -3.022186  -3.294125  -4.103687
     C  -2.053930  -1.427669  -2.726793
     C   2.950153  -2.873467  -6.629852
     H   0.728387  -4.268824  -7.006730
     H  -2.721433  -4.349103  -4.015048
     H  -3.840072  -3.102979  -3.402161
     H  -3.390106  -3.125463  -5.127577
     H  -1.861310  -0.409944  -3.100164
     H  -3.073600  -1.467821  -2.332813
     H  -1.354349  -1.628919  -1.901943
     C   4.133030  -2.206582  -6.441741
     H   2.907283  -3.568489  -7.475414
     C   5.253099  -2.380610  -7.328022
     H   4.239026  -1.519223  -5.604897
     C   6.544887  -1.717845  -7.060227
     O   5.155643  -3.120571  -8.374069
     C   7.625294  -1.921040  -7.970863
     C   6.781913  -0.895422  -5.938396
     H   6.476533  -3.005452  -8.995663
     C   8.878162  -1.338602  -7.721498
     O   7.467896  -2.674804  -9.076604
     C   8.017649  -0.310547  -5.707335
     H   5.981503  -0.698365  -5.227006
     C   9.070790  -0.542088  -6.602464
     H   9.686161  -1.545673  -8.423170
     H   8.166470   0.327328  -4.836576
     H  10.048427  -0.096130  -6.412697
     C  -2.092448  -4.364609  -0.300949
     C  -3.275325  -5.031494  -0.489059
     C  -0.891748  -4.491035  -1.066176
     H  -2.049577  -3.669586   0.544613
     C  -4.395393  -4.857466   0.397222
     H  -3.381321  -5.718852  -1.325903
     C  -0.717754  -5.426014  -2.116814
     C   0.226698  -3.686763  -0.740106
     C  -5.687181  -5.520230   0.129425
     O  -4.297938  -4.117504   1.443268
     H  -1.542253  -6.079342  -2.404928
     C   0.474457  -5.548895  -2.792359
     C   1.426783  -3.786584  -1.409727
     H   0.129319  -2.969251   0.075930
     C  -6.767589  -5.317037   1.040062
     C  -5.924207  -6.342653  -0.992404
     H  -5.618828  -4.232623   2.064862
     C   1.592410  -4.723987  -2.466344
     H   0.550144  -6.286250  -3.587284
     H   2.254957  -3.149644  -1.109167
     C  -8.020456  -5.899473   0.790697
     O  -6.610190  -4.563271   2.145803
     C  -7.159943  -6.927528  -1.223465
     H  -5.123798  -6.539711  -1.703795
     N   2.766305  -4.828377  -3.140822
     C  -8.213085  -6.695987  -0.328337
     H  -8.828456  -5.692403   1.492370
     H  -7.308765  -7.565404  -2.094225
     C   2.911635  -5.810405  -4.204008
     C   3.879892  -3.943950  -2.827114
     H  -9.190722  -7.141945  -0.518104
     H   2.719015  -6.828131  -3.830637
     H   3.931305  -5.770254  -4.597988
     H   2.212054  -5.609158  -5.028858
     H   3.579139  -2.888972  -2.915753
     H   4.697777  -4.135097  -3.528639
     H   4.247812  -4.112614  -1.803223
     O  -1.561927   2.021928  -4.178832
     C  -1.659383   2.761890  -5.224878
     H  -2.882818   2.137048  -3.557238
     C  -2.951172   3.424654  -5.492674
     C  -0.539315   2.935918  -6.111159
     O  -3.874180   2.467695  -3.476297
     C  -4.031579   3.221461  -4.582038
     C  -3.188198   4.247078  -6.614504
     C   0.643563   2.269033  -5.923048
     H  -0.645311   3.623277  -6.948003
     C  -5.284446   3.803897  -4.831403
     C  -4.423934   4.831953  -6.845565
     H  -2.387788   4.444135  -7.325894
     C   1.844262   2.395459  -6.688277
     H   0.686432   1.574011  -5.077487
     C  -5.477075   4.600411  -5.950437
     H  -6.092446   3.596827  -4.129730
     H  -4.572755   5.469828  -7.716325
     C   2.018256   3.330438  -7.738914
     C   2.962707   1.591188  -6.362205
     H  -6.454712   5.046370  -6.140204
     H   1.193758   3.983766  -8.027028
     C   3.210467   3.453319  -8.414458
     H   2.865330   0.873676  -5.546170
     C   4.162793   1.691009  -7.031828
     C   4.328420   2.628411  -8.088444
     H   3.286155   4.190674  -9.209383
     H   4.990967   1.054069  -6.731268
     N   5.502315   2.732802  -8.762921
     C   5.647645   3.714830  -9.826108
     C   6.615901   1.848374  -8.449214
     H   5.455025   4.732556  -9.452737
     H   6.667316   3.674679 -10.220088
     H   4.948064   3.513581 -10.650958
     H   6.315149   0.793397  -8.537853
     H   7.433788   2.039521  -9.150739
     H   6.983822   2.017038  -7.425323
     C   2.153273  -1.921040   3.273336
     C   3.406142  -1.338602   3.522701
     C   1.072866  -1.717845   4.183973
     O   1.995876  -2.674804   2.167596
     C   3.598770  -0.542088   4.641735
     H   4.214141  -1.545673   2.821029
     C   1.309893  -0.895422   5.305804
     C  -0.218922  -2.380610   3.916178
     H   1.004513  -3.005452   2.248537
     C   2.545629  -0.310547   5.536864
     H   4.576406  -0.096130   4.831502
     H   0.509483  -0.698365   6.017194
     C  -1.338990  -2.206582   4.802458
     O  -0.316378  -3.120571   2.870130
     H   2.694449   0.327328   6.407623
     C  -2.521868  -2.873467   4.614348
     H  -1.232994  -1.519223   5.639302
     C  -3.722566  -2.747041   5.379575
     H  -2.564737  -3.568489   3.768786
     C  -4.841013  -3.551312   5.053504
     C  -3.896560  -1.812061   6.430213
     C  -6.041099  -3.451491   5.723127
     H  -4.743634  -4.268824   4.237469
     C  -5.088771  -1.689180   7.105757
     H  -3.072063  -1.158734   6.718327
     C  -6.206724  -2.514088   6.779742
     H  -6.869272  -4.088431   5.422566
     H  -5.164459  -0.951826   7.900682
     N  -7.380620  -2.409698   7.454220
     C  -8.494207  -3.294125   7.140513
     C  -7.525950  -1.427669   8.517406
     H  -8.193453  -4.349103   7.229152
     H  -9.312093  -3.102979   7.842038
     H  -8.862126  -3.125463   6.116622
     H  -7.333330  -0.409944   8.144036
     H  -8.545621  -1.467821   8.911387
     H  -6.826369  -1.628919   9.342256
     C   4.045903  -1.200153  -0.316296
     C   5.281639  -1.785028  -0.085236
     C   3.808876  -0.377730  -1.438126
     H   3.245493  -1.397211   0.395094
     C   6.334781  -1.553487  -0.980365
     H   5.430460  -2.422904   0.785524
     C   4.889283  -0.174536  -2.348763
     C   2.517088   0.285034  -1.705922
     C   6.142152  -0.756973  -2.099399
     H   7.312416  -1.999445  -0.790597
     O   4.731885   0.579229  -3.454504
     C   1.397020   0.111006  -0.819642
     O   2.419632   1.024996  -2.751970
     H   6.950152  -0.549903  -2.801071
     H   3.740523   0.909877  -3.373564
     C   0.214142   0.777890  -1.007752
     H   1.503016  -0.576352   0.017202
     C  -0.986556   0.651464  -0.242525
     H   0.171273   1.472914  -1.853314
     C  -1.160550  -0.283514   0.808113
     C  -2.105003   1.455737  -0.568596
     C  -2.352761  -0.406395   1.483657
     H  -0.336053  -0.936842   1.096227
     C  -3.305088   1.355916   0.101027
     H  -2.007624   2.173249  -1.384631
     C  -3.470714   0.418513   1.157643
     H  -2.428449  -1.143751   2.278583
     H  -4.133261   1.992856  -0.199534
     N  -4.644610   0.314123   1.832121
     C  -4.789940  -0.667906   2.895307
     C  -5.758197   1.198550   1.518413
     H  -4.597320  -1.685631   2.521936
     H  -5.809610  -0.627754   3.289287
     H  -4.090359  -0.466658   3.720157
     H  -5.457443   2.253528   1.607053
     H  -6.576083   1.007403   2.219938
     H  -6.126116   1.029887   0.494522
     H  -0.481053   1.054069   4.512932
     C  -1.309227   1.691009   4.212372
     C  -1.143600   2.628411   3.155756
     C  -2.509313   1.591188   4.881994
     C  -2.261553   3.453319   2.829741
     N   0.030295   2.732802   2.481278
     C  -3.627758   2.395459   4.555923
     H  -2.606691   0.873676   5.698030
     C  -3.453764   3.330438   3.505286
     H  -2.185866   4.190674   2.034816
     C   0.175625   3.714830   1.418091
     C   1.143881   1.848374   2.794985
     C  -4.828458   2.269033   5.321151
     H  -4.278263   3.983766   3.217171
     H  -0.016995   4.732556   1.791462
     H   1.195296   3.674679   1.024112
     H  -0.523956   3.513581   0.593241
     H   0.843129   0.793397   2.706347
     H   1.961767   2.039521   2.093461
     H   1.511802   2.017038   3.818876
     C  -6.011335   2.935918   5.133040
     H  -4.785588   1.574011   6.166713
     C  -7.131403   2.761890   6.019322
     H  -6.117331   3.623277   4.296196
     C  -8.423192   3.424654   5.751525
     O  -7.033948   2.021928   7.065368
     C  -9.503599   3.221461   6.662162
     C  -8.660218   4.247078   4.629696
     H  -8.354838   2.137048   7.686962
     C -10.756466   3.803897   6.412797
     O  -9.346201   2.467695   7.767902
     C  -9.895954   4.831953   4.398634
     H  -7.859808   4.444135   3.918305
     C -10.949095   4.600411   5.293763
     H -11.564466   3.596827   7.114469
     H -10.044775   5.469828   3.527875
     H -11.926732   5.046370   5.103996
     H   2.929278   3.143054  -0.518104
     C   3.906915   3.589013  -0.328337
     C   4.099543   4.385527   0.790697
     C   4.960056   3.357472  -1.223465
     C   5.352411   4.967963   1.040062
     H   3.291544   4.592596   1.492370
     C   6.195793   3.942346  -0.992404
     H   4.811235   2.719596  -2.094225
     C   6.432819   4.764770   0.129425
     O   5.509810   5.721729   2.145803
     H   6.996201   3.745289  -1.703795
     C   7.724607   5.427534   0.397222
     H   6.501172   6.052377   2.064862
     C   8.844675   5.253506  -0.489059
     O   7.822062   6.167496   1.443268
     C  10.027552   5.920391  -0.300949
     H   8.738679   4.566147  -1.325903
     C  11.228252   5.793965  -1.066176
     H  10.070423   6.615414   0.544613
     C  11.402245   4.858986  -2.116814
     C  12.346698   6.598236  -0.740106
     H  10.577747   4.205658  -2.404928
     C  12.594457   4.736105  -2.792359
     C  13.546783   6.498416  -1.409727
     H  12.249319   7.315749   0.075930
     C  13.712410   5.561013  -2.466344
     H  12.670144   3.998750  -3.587284
     H  14.374956   7.135356  -1.109167
     N  14.886305   5.456623  -3.140822
     C  15.031635   4.474595  -4.204008
     C  15.999892   6.341050  -2.827114
     H  14.839015   3.456868  -3.830637
     H  16.051305   4.514746  -4.597988
     H  14.332054   4.675842  -5.028858
     H  15.699139   7.396028  -2.915753
     H  16.817777   6.149903  -3.528639
     H  16.367811   6.172386  -1.803223

-18.097855  -0.756976  -2.099393  -0.032000
-17.905225  -1.553488  -0.980359  -0.016000
-17.289844  -0.549908  -2.801076   0.050000
-16.927581  -1.999445  -0.790602   0.035000
-16.961014  -3.551308   5.053503  -0.021000
-16.863628  -4.268820   4.237466   0.048000
-17.929605  -0.627755   3.289288   0.050000
-17.243797   3.745293  -1.703800   0.051000
-16.948455   2.269036   5.321149   0.011000
-17.577440   2.253526   1.607055   0.024000
-16.905584   1.574006   6.166712   0.053000
 -9.169853 -13.158464  -6.629850   0.011000
-10.370544 -13.032041  -5.864626   0.018000
 -9.000741 -10.691391  -9.760538  -0.044000
 -9.212712 -13.853494  -7.475413   0.053000
 -9.076422 -11.428754  -8.965618   0.034000
-10.738333 -10.751661  -7.524045   0.019000
-10.544539 -12.097063  -4.813990  -0.026000
-11.736751 -11.974178  -4.138439  -0.044000
-11.812432 -11.236825  -3.343519   0.034000
-13.981313 -10.694940  -3.100161   0.053000
-13.474343 -11.913918  -1.901945   0.019000
 -8.311124 -10.662727  -1.438122   0.017000
-10.693213 -14.071587  -1.409730  -0.052000
 -9.720039 -11.443729  -4.525869   0.044000
 -9.865050 -13.434648  -1.109162   0.029000
 -8.540856 -13.173974  -2.915756   0.024000
 -9.353696 -15.113376  -3.140820  -0.258000
-13.280549 -10.568516   0.808109  -0.026000
-14.472761 -10.691391   1.483661  -0.044000
 -9.966721 -12.206043   3.273333   0.266000
 -8.713865 -11.623603   3.522706  -0.032000
 -8.521235 -10.827091   4.641740  -0.016000
 -9.574377 -10.595545   5.536868  -0.034000
-10.810108 -11.180422   5.305800  -0.022000
-11.047134 -12.002842   4.183978   0.017000
-12.338919 -12.665607   3.916175   0.298000
 -8.874511 -11.682207   0.395099   0.051000
-10.616984 -10.861351   0.017204   0.037000
-12.456049 -11.221840   1.096231   0.044000
-11.990678 -13.254249   0.075932   0.048000
-11.115484 -13.290452   2.248536   0.243000
-10.124131 -12.959799   2.167600  -0.521000
-10.641864 -10.834908   8.443123   0.050000
-11.610521 -10.983362   6.017198   0.051000
 -8.545627 -11.752824   8.911388   0.050000
 -9.312092 -13.387974   7.842042   0.046000
 -8.862129 -13.410468   6.116619   0.018000
 -8.752984  -8.829261 -11.812796  -0.021000
-10.029304  -5.718851 -12.570104   0.037000
-10.781244  -8.292148 -11.443727   0.029000
 -8.655598  -8.111749 -12.628832   0.048000
-13.415565  -5.317036 -10.204133   0.266000
-15.308200  -6.037922  -6.614501  -0.022000
-12.335164  -5.520227 -11.114778   0.017000
-12.659311  -7.349085  -6.111155  -0.052000
-11.476435  -8.015964  -5.923050   0.011000
-10.275744  -7.889541  -6.688274   0.018000
-10.101748  -6.954563  -7.738910  -0.026000
 -8.909536  -6.831678  -8.414461  -0.044000
-10.118697  -9.866483 -10.086552   0.150000
 -9.953063  -8.929087 -11.143170  -0.052000
 -9.157294  -8.693808  -6.362204  -0.021000
-14.507787  -5.840862  -7.325899   0.051000
-12.765314  -6.661718  -6.948004   0.037000
-10.926237  -6.301229  -8.027031   0.044000
 -8.833843  -6.094325  -9.209381   0.034000
-12.105420  -8.031474  -9.637144   0.024000
-11.292592  -9.970876  -9.412080  -0.258000
-16.151575  -7.063543  -4.582034   0.266000
-15.071174  -6.860342  -5.492679   0.017000
-13.779389  -7.523107  -5.224876   0.298000
-11.905863  -9.507115  -1.007750   0.011000
-13.106554  -9.633538  -0.242526   0.018000
-12.837758  -5.426016  -2.116810  -0.026000
-11.645546  -5.548891  -2.792362  -0.044000
-14.225004  -8.829261  -0.568597  -0.021000
-15.501324  -5.718851  -1.325905   0.037000
-11.948722  -8.812085  -1.853314   0.053000
-11.433564  -8.710994  -5.077487   0.053000
-13.662247  -6.079340  -2.404932   0.044000
-11.569853  -6.286254  -3.587282   0.034000
-16.253264  -8.292148  -0.199528   0.029000
-14.127618  -8.111749  -1.384633   0.048000
 -9.907943  -5.609161  -5.028856   0.019000
-15.002824  -8.147952  -3.557237   0.243000
-15.994177  -7.817299  -3.476302  -0.521000
-13.681930  -8.263072  -4.178828  -0.558000
 -9.602909  -9.999962  -1.705925   0.298000
-10.722975 -10.173994  -0.819646  -0.052000
 -9.254668  -9.411320  -5.546167   0.048000
 -9.400985  -6.828129  -3.830640   0.053000
 -8.379474  -9.375127  -3.373563   0.243000
 -9.700368  -9.260007  -2.751973  -0.558000
-15.747764  -7.889541   4.555925   0.018000
-15.573768  -6.954563   3.505289  -0.026000
-14.381556  -6.831678   2.829738  -0.044000
-15.425083  -8.929087   0.101029  -0.052000
-14.629314  -8.693808   4.881995  -0.021000
-16.398257  -6.301229   3.217168   0.044000
-14.305863  -6.094325   2.034818   0.034000
-12.643953  -6.771418   0.593244   0.019000
-10.949093  -5.684591   5.293758  -0.016000
 -9.895951  -5.453045   4.398629  -0.034000
 -8.660220  -6.037922   4.629698  -0.022000
-13.263601  -7.656586   3.155752   0.150000
-13.429223  -8.593992   4.212369  -0.052000
-11.926737  -5.238634   5.104001   0.035000
-12.601054  -9.230931   4.512927   0.029000
-12.136995  -5.552440   1.791460   0.053000
-10.924701  -6.610324   1.024110   0.050000
-11.276866  -9.491605   2.706344   0.024000
-10.158236  -8.245474   2.093456   0.046000
-10.608199  -8.267957   3.818879   0.018000
-12.089706  -7.552193   2.481280  -0.258000
-15.379963  -5.609161   6.215343   0.019000
 -9.503595  -7.063543   6.662165   0.266000
-10.756463  -6.481103   6.412792  -0.032000
-12.631961  -6.927523  10.020729  -0.034000
-11.396230  -6.342657  10.251797  -0.022000
 -8.423194  -6.860342   5.751520   0.017000
-11.564469  -6.688171   7.114463   0.050000
-12.780793  -7.565399   9.149978   0.044000
 -9.425545  -9.957670   6.407619   0.044000
-10.595817  -6.539707   9.540399   0.051000
 -8.853344  -5.718851   9.918294   0.037000
 -9.605284  -8.292148  11.044671   0.029000
-14.873005  -6.828129   7.413559   0.053000
-13.660711  -5.770255   6.646210   0.050000
 -8.354844  -8.147952   7.686962   0.243000
-12.860141  -9.705769   7.789700  -0.521000
 -9.346197  -7.817299   7.767897  -0.521000
-12.239605  -5.317036  12.284265   0.266000
-11.159204  -5.520227  11.373620   0.017000
 -8.942737  -9.866483  12.401846   0.150000
 -8.777103  -8.929087  11.345228  -0.052000
-12.433205  -1.553488 -12.224558  -0.016000
 -9.923301  -5.031494 -11.733254  -0.052000
 -8.740425  -4.364604 -11.545150   0.011000
-11.455561  -1.999445 -12.034801   0.035000
 -8.509293  -0.409940 -14.344360   0.053000
 -9.721587  -1.467824 -13.577010   0.050000
-10.488052  -3.102974 -14.646356   0.046000
 -8.556582  -2.409693 -15.034180  -0.258000
-13.486347  -1.785023 -11.329430  -0.034000
-15.361845  -1.338603  -7.721493  -0.032000
-15.169215  -0.542091  -6.602459  -0.016000
-16.222357  -0.310545  -5.707331  -0.034000
-11.043379  -4.857462 -10.846975   0.298000
 -9.169853  -2.873464  -6.629850   0.011000
-10.370544  -2.747041  -5.864626   0.018000
 -9.000741  -0.406391  -9.760538  -0.044000
-11.488994  -3.551308  -6.190696  -0.021000
-14.553839  -1.545671  -8.423164   0.050000
-14.191571  -0.096134  -6.412702   0.035000
-13.337515  -2.422899 -10.458679   0.044000
 -8.697554  -3.669585 -10.699586   0.053000
 -9.212712  -3.568494  -7.475413   0.053000
 -9.076422  -1.143754  -8.965618   0.034000
-13.517254  -4.088431  -5.821628   0.029000
-11.391608  -4.268820  -7.006733   0.048000
-11.245303  -1.685629  -8.722260   0.053000
-12.457585  -0.627755  -7.954911   0.050000
-10.738333  -0.466661  -7.524045   0.019000
-12.266814  -4.232627  -9.179337   0.243000
-13.258167  -4.563269  -9.098401  -0.521000
-10.945920  -4.117507  -9.800927  -0.558000
-15.395321  -5.031494  -0.489055  -0.052000
-14.212445  -4.364604  -0.300951   0.011000
-13.011754  -4.491038  -1.066175   0.018000
-10.544539  -1.812063  -4.813990  -0.026000
-11.736751  -1.689178  -4.138439  -0.044000
-12.854707  -2.514086  -4.464453   0.150000
-12.689085  -3.451492  -5.521070  -0.052000
-11.893304  -3.686761  -0.740104  -0.021000
-11.812432  -0.951825  -3.343519   0.034000
-13.981313  -0.409940  -3.100161   0.053000
-15.193607  -1.467824  -2.332811   0.050000
-13.474343  -1.628918  -1.901945   0.019000
-14.841430  -4.349105  -4.015045   0.024000
-15.960072  -3.102974  -3.402157   0.046000
-15.510109  -3.125468  -5.127580   0.018000
-14.028602  -2.409693  -3.789981  -0.258000
 -8.311124  -0.377727  -1.438122   0.017000
-10.527591  -4.723983  -2.466348   0.150000
-10.693213  -3.786587  -1.409730  -0.052000
 -9.720039  -1.158729  -4.525869   0.044000
 -9.865050  -3.149648  -1.109162   0.029000
 -8.540856  -2.888974  -2.915756   0.024000
 -9.353696  -4.828376  -3.140820  -0.258000
-16.515399  -4.857462   0.397224   0.298000
-14.641873  -2.873464   4.614349   0.011000
-15.842564  -2.747041   5.379573   0.018000
-13.280549  -0.283516   0.808109  -0.026000
-14.472761  -0.406391   1.483661  -0.044000
-14.169574  -3.669585   0.544613   0.053000
-14.684732  -3.568494   3.768786   0.053000
-14.548442  -1.143754   2.278581   0.034000
-16.717323  -1.685629   2.521939   0.053000
-16.210353  -0.466661   3.720154   0.019000
-16.417940  -4.117507   1.443272  -0.558000
 -9.966721  -1.921043   3.273333   0.266000
 -8.713865  -1.338603   3.522706  -0.032000
 -8.521235  -0.542091   4.641740  -0.016000
 -9.574377  -0.310545   5.536868  -0.034000
-10.810108  -0.895422   5.305800  -0.022000
-11.047134  -1.717842   4.183978   0.017000
-12.338919  -2.380607   3.916175   0.298000
-13.458985  -2.206585   4.802454  -0.052000
-10.044783  -4.815170   3.527879   0.044000
 -8.874511  -1.397207   0.395099   0.051000
-10.616984  -0.576351   0.017204   0.037000
-12.456049  -0.936840   1.096231   0.044000
-11.990678  -2.969249   0.075932   0.048000
-11.115484  -3.005452   2.248536   0.243000
-10.124131  -2.674799   2.167600  -0.521000
-12.436378  -3.120572   2.870127  -0.558000
-16.016559  -1.812063   6.430209  -0.026000
-12.702731  -0.174536   8.895432   0.266000
-11.449875  -0.756976   9.144806  -0.032000
-11.257245  -1.553488  10.263840  -0.016000
-12.310387  -1.785023  11.158968  -0.034000
-13.546118  -1.200157  10.927900  -0.022000
-13.783144  -0.377727   9.806077   0.017000
 -8.747341  -5.031494  10.755144  -0.052000
-10.641864  -0.549908   8.443123   0.050000
-10.279601  -1.999445  10.453597   0.035000
-11.610521  -0.698362   6.017198   0.051000
-13.352994  -1.519218   5.639303   0.037000
-15.192059  -1.158729   6.718330   0.044000
-14.012876  -2.888974   8.328443   0.024000
-12.894246  -4.135095   7.715556   0.046000
-13.344209  -4.112612   9.440978   0.018000
-14.825716  -4.828376   8.103379  -0.258000
 -9.867419  -4.857462  11.641423   0.298000
-12.161555  -2.422899  12.029719   0.044000
-10.069343  -1.685629  13.766138   0.053000
 -9.562373  -0.466661  14.964353   0.019000
-11.090854  -4.232627  13.309061   0.243000
 -9.769960  -4.117507  12.687471  -0.558000
-12.572190   3.942343 -12.236601  -0.022000
 -8.752984   1.455739 -11.812796  -0.021000
-11.771777   3.745293 -12.947999   0.051000
-10.029304   4.566149 -12.570104   0.037000
-10.781244   1.992852 -11.443727   0.029000
 -8.655598   2.173251 -12.628832   0.048000
 -9.530804   2.137048 -14.801436   0.243000
-10.522157   2.467701 -14.720501  -0.521000
 -8.209910   2.021928 -15.423027  -0.558000
-13.415565   4.967964 -10.204133   0.266000
-15.308200   4.247078  -6.614501  -0.022000
-12.335164   4.764773 -11.114778   0.017000
-12.659311   2.935915  -6.111155  -0.052000
-11.476435   2.269036  -5.923050   0.011000
-10.275744   2.395459  -6.688274   0.018000
-10.101748   3.330437  -7.738910  -0.026000
 -8.909536   3.453322  -8.414461  -0.044000
-10.118697   0.418517 -10.086552   0.150000
 -9.953063   1.355913 -11.143170  -0.052000
 -9.157294   1.591192  -6.362204  -0.021000
-14.507787   4.444138  -7.325899   0.051000
-12.765314   3.623282  -6.948004   0.037000
-10.926237   3.983771  -8.027031   0.044000
 -8.833843   4.190675  -9.209381   0.034000
-12.105420   2.253526  -9.637144   0.024000
-13.224062   1.007405  -9.024257   0.046000
-12.774099   1.029888 -10.749679   0.018000
-11.292592   0.314124  -9.412080  -0.258000
-16.151575   3.221457  -4.582034   0.266000
-15.071174   3.424658  -5.492679   0.017000
-13.779389   2.761893  -5.224876   0.298000
-11.905863   0.777885  -1.007750   0.011000
-13.106554   0.651462  -0.242526   0.018000
-12.837758   4.858984  -2.116810  -0.026000
-11.645546   4.736109  -2.792362  -0.044000
-14.225004   1.455739  -0.568597  -0.021000
-16.073525   0.327330  -4.836580   0.044000
-15.501324   4.566149  -1.325905   0.037000
-11.948722   1.472915  -1.853314   0.053000
-11.433564   1.574006  -5.077487   0.053000
-13.662247   4.205660  -2.404932   0.044000
-11.569853   3.998746  -3.587282   0.034000
-16.253264   1.992852  -0.199528   0.029000
-14.127618   2.173251  -1.384633   0.048000
 -9.907943   4.675839  -5.028856   0.019000
-15.002824   2.137048  -3.557237   0.243000
-15.994177   2.467701  -3.476302  -0.521000
-13.681930   2.021928  -4.178828  -0.558000
 -8.213083   3.589012  -0.328342  -0.016000
 -9.602909   0.285038  -1.705925   0.298000
-10.722975   0.111006  -0.819646  -0.052000
 -9.190727   3.143055  -0.518099   0.035000
 -9.254668   0.873680  -5.546167   0.048000
 -9.400985   3.456871  -3.830640   0.053000
 -8.379474   0.909873  -3.373563   0.243000
 -9.700368   1.024993  -2.751973  -0.558000
-15.747764   2.395459   4.555925   0.018000
-15.573768   3.330437   3.505289  -0.026000
-14.381556   3.453322   2.829738  -0.044000
-15.590717   0.418517   1.157647   0.150000
-15.425083   1.355913   0.101029  -0.052000
-14.629314   1.591192   4.881995  -0.021000
-16.398257   3.983771   3.217168   0.044000
-14.305863   4.190675   2.034818   0.034000
-12.643953   3.513582   0.593244   0.019000
-16.764612   0.314124   1.832119  -0.258000
-13.263601   2.628414   3.155752   0.150000
-13.429223   1.691008   4.212369  -0.052000
 -8.828464   4.592592   1.492375   0.050000
-12.601054   1.054069   4.512927   0.029000
-12.136995   4.732560   1.791460   0.053000
-10.924701   3.674676   1.024110   0.050000
-11.276866   0.793395   2.706344   0.024000
-10.158236   2.039526   2.093456   0.046000
-10.608199   2.017043   3.818879   0.018000
-12.089706   2.732807   2.481280  -0.258000
-15.379963   4.675839   6.215343   0.019000
-13.685103   3.589012  10.915857  -0.016000
-12.631961   3.357477  10.020729  -0.034000
-11.396230   3.942343  10.251797  -0.022000
-15.074929   0.285038   9.538274   0.298000
-12.780793   2.719601   9.149978   0.044000
 -9.425545   0.327330   6.407619   0.044000
-10.595817   3.745293   9.540399   0.051000
 -8.853344   4.566149   9.918294   0.037000
 -9.605284   1.992852  11.044671   0.029000
-14.726688   0.873680   5.698032   0.048000
-14.873005   3.456871   7.413559   0.053000
-13.660711   4.514745   6.646210   0.050000
-13.851494   0.909873   7.870636   0.243000
-12.860141   0.579231   7.789700  -0.521000
-15.172388   1.024993   8.492226  -0.558000
-12.239605   4.967964  12.284265   0.266000
-11.159204   4.764773  11.373620   0.017000
 -8.925788   3.330437  14.749488  -0.026000
 -8.942737   0.418517  12.401846   0.150000
 -8.777103   1.355913  11.345228  -0.052000
 -9.750277   3.983771  14.461367   0.044000
-10.929460   2.253526  12.851254   0.024000
-12.048102   1.007405  13.464141   0.046000
-11.598139   1.029888  11.738719   0.018000
-10.116632   0.314124  13.076318  -0.258000
 -9.923301   5.253506 -11.733254  -0.052000
 -8.740425   5.920396 -11.545150   0.011000
-11.043379   5.427538 -10.846975   0.298000
 -9.169853   7.411536  -6.629850   0.011000
-10.370544   7.537959  -5.864626   0.018000
 -9.000741   9.878609  -9.760538  -0.044000
-11.488994   6.733692  -6.190696  -0.021000
 -8.697554   6.615415 -10.699586   0.053000
 -9.212712   6.716506  -7.475413   0.053000
 -9.076422   9.141246  -8.965618   0.034000
-13.517254   6.196569  -5.821628   0.029000
-11.391608   6.016180  -7.006733   0.048000
-11.245303   8.599371  -8.722260   0.053000
-12.457585   9.657245  -7.954911   0.050000
-10.738333   9.818339  -7.524045   0.019000
-12.266814   6.052373  -9.179337   0.243000
-13.258167   5.721731  -9.098401  -0.521000
-10.945920   6.167493  -9.800927  -0.558000
-15.395321   5.253506  -0.489055  -0.052000
-14.212445   5.920396  -0.300951   0.011000
-13.011754   5.793962  -1.066175   0.018000
-10.544539   8.472937  -4.813990  -0.026000
-11.736751   8.595822  -4.138439  -0.044000
-12.854707   7.770914  -4.464453   0.150000
-12.689085   6.833508  -5.521070  -0.052000
-11.893304   6.598239  -0.740104  -0.021000
-11.812432   9.333175  -3.343519   0.034000
-13.981313   9.875060  -3.100161   0.053000
-15.193607   8.817176  -2.332811   0.050000
-13.474343   8.656082  -1.901945   0.019000
-14.841430   5.935895  -4.015045   0.024000
-15.960072   7.182026  -3.402157   0.046000
-15.510109   7.159532  -5.127580   0.018000
-14.028602   7.875307  -3.789981  -0.258000
 -8.311124   9.907273  -1.438122   0.017000
-10.527591   5.561017  -2.466348   0.150000
-10.693213   6.498413  -1.409730  -0.052000
 -9.720039   9.126271  -4.525869   0.044000
 -9.865050   7.135352  -1.109162   0.029000
 -8.540856   7.396026  -2.915756   0.024000
 -9.353696   5.456624  -3.140820  -0.258000
-16.515399   5.427538   0.397224   0.298000
-14.641873   7.411536   4.614349   0.011000
-13.280549  10.001484   0.808109  -0.026000
-14.472761   9.878609   1.483661  -0.044000
-14.169574   6.615415   0.544613   0.053000
-14.684732   6.716506   3.768786   0.053000
-14.548442   9.141246   2.278581   0.034000
-16.417940   6.167493   1.443272  -0.558000
 -9.966721   8.363957   3.273333   0.266000
 -8.713865   8.946397   3.522706  -0.032000
 -8.521235   9.742909   4.641740  -0.016000
 -9.574377   9.974455   5.536868  -0.034000
-10.810108   9.389578   5.305800  -0.022000
-11.047134   8.567158   4.183978   0.017000
-12.338919   7.904393   3.916175   0.298000
-13.458985   8.078415   4.802454  -0.052000
 -8.874511   8.887793   0.395099   0.051000
-10.616984   9.708649   0.017204   0.037000
-12.456049   9.348160   1.096231   0.044000
-11.990678   7.315751   0.075932   0.048000
-11.115484   7.279548   2.248536   0.243000
-10.124131   7.610201   2.167600  -0.521000
-12.436378   7.164428   2.870127  -0.558000
-11.449875   9.528024   9.144806  -0.032000
-11.257245   8.731512  10.263840  -0.016000
 -8.747341   5.253506  10.755144  -0.052000
-10.641864   9.735092   8.443123   0.050000
-10.279601   8.285555  10.453597   0.035000
-11.610521   9.586638   6.017198   0.051000
-13.352994   8.765782   5.639303   0.037000
 -8.545627   8.817176   8.911388   0.050000
-14.012876   7.396026   8.328443   0.024000
-12.894246   6.149905   7.715556   0.046000
 -9.312092   7.182026   7.842042   0.046000
-13.344209   6.172388   9.440978   0.018000
 -8.862129   7.159532   6.116619   0.018000
-14.825716   5.456624   8.103379  -0.258000
 -9.867419   5.427538  11.641423   0.298000
 -9.769960   6.167493  12.687471  -0.558000
-11.476435  12.554036  -5.923050   0.011000
-10.275744  12.680459  -6.688274   0.018000
-10.118697  10.703517 -10.086552   0.150000
 -9.157294  11.876192  -6.362204  -0.021000
-11.292592  10.599124  -9.412080  -0.258000
-11.905863  11.062885  -1.007750   0.011000
-13.106554  10.936462  -0.242526   0.018000
-11.948722  11.757915  -1.853314   0.053000
-11.433564  11.859006  -5.077487   0.053000
 -8.213083  13.874012  -0.328342  -0.016000
 -9.602909  10.570038  -1.705925   0.298000
-10.722975  10.396006  -0.819646  -0.052000
 -9.190727  13.428055  -0.518099   0.035000
 -9.254668  11.158680  -5.546167   0.048000
 -9.400985  13.741871  -3.830640   0.053000
 -8.379474  11.194873  -3.373563   0.243000
 -9.700368  11.309993  -2.751973  -0.558000
 -8.660220  14.532078   4.629698  -0.022000
 -8.828464  14.877592   1.492375   0.050000
-12.601054  11.339069   4.512927   0.029000
-10.924701  13.959676   1.024110   0.050000
-11.276866  11.078395   2.706344   0.024000