%chk=naphthalene222.chk
%mem=2GB
%nproc=4
#wb97xd 6-311++g** opt td(nstates=1,root=1)

naphthalene222

0 1
     C   1.748036   0.114158   1.816059
     C   1.375513   0.970742   0.809179
     C   1.092945  -1.131228   1.976123
     H   2.544258   0.400487   2.492442
     H   1.862884   1.929436   0.680165
     H   1.381755  -1.804744   2.774049
     C   0.328108   0.625455  -0.079763
     C   0.079838  -1.494052   1.122487
     H  -0.430590  -2.442805   1.234607
     C  -0.328108  -0.625455   0.079763
     C  -0.079838   1.494052  -1.122487
     H   0.430590   2.442805  -1.234607
     C  -1.375513  -0.970742  -0.809179
     H  -1.862884  -1.929436  -0.680165
     C  -1.092945   1.131228  -1.976123
     H  -1.381755   1.804744  -2.774049
     C  -1.748036  -0.114158  -1.816059
     H  -2.544258  -0.400487  -2.492442

 -8.316905 -17.038741  -3.535428  -0.073601
 -2.599343 -13.049783  -1.529127  -0.124941
-11.469344 -13.999653  -4.846089  -0.064291
 -9.554859 -14.685291  -3.232964  -0.023736
 -6.388340 -13.353046 -10.200259  -0.023737
 -4.807950 -11.972145  -4.710031   0.061035
 -6.812260 -17.579813  -2.257264   0.014556
 -0.353823 -13.176897  -8.252622   0.062264
 -3.520340 -14.861440  -1.285327   0.062265
-12.433908 -12.206770  -4.634226   0.018093
 -9.009072 -13.412531  -1.725103   0.076033
 -5.842555 -14.625806  -8.692398   0.075847
 -5.765862 -14.988554   5.438168  -0.124941
-12.721376 -13.353046   3.734331  -0.023737
 -7.974468 -16.066191   2.257264   0.061035
-11.140985 -11.972145   9.224559   0.061035
 -6.686858 -13.176897   5.681970   0.062264
 -2.546476 -18.004941   6.816578   0.058947
 -3.015651 -13.999653   9.088503  -0.132430
 -1.101166 -14.685291  10.701626  -0.037500
 -0.813697 -15.831567   2.333069   0.092035
 -3.980215 -12.206770   9.300364   0.091971
 -0.555381 -13.412531  12.209489   0.057621
 -1.983870  -5.823406 -17.470020  -0.073599
-11.053036  -1.834425 -15.463717   0.091481
 -3.221822  -3.469956 -17.167556  -0.023737
 -0.479225  -6.364478 -16.191854   0.014556
 -6.100871  -0.991435 -18.568818   0.018092
 -7.639994  -6.599103 -16.267659   0.018092
 -2.676037  -2.197196 -15.659693   0.076033
-14.923514  -5.391929 -10.399162  -0.073601
 -8.316905  -5.823406  -3.535428  -0.073600
-18.090031  -0.215739  -3.431867  -0.073599
 -5.150388 -10.999596 -10.502725  -0.073599
-14.219553  -3.773242  -8.496422   0.091480
 -9.020866  -7.442115  -5.438168   0.091480
-17.386071  -1.834425  -1.529127   0.091481
 -5.854348  -9.380887 -12.405465   0.091480
 -0.150866  -8.391986  -2.121208  -0.132457
-11.469344  -2.784318  -4.846089  -0.064290
-11.771077  -8.431016  -9.088503  -0.064291
 -8.302825  -2.823349 -11.813384  -0.064291
-14.937594  -8.391986  -2.121208  -0.064291
 -2.065351  -9.077624  -3.734331  -0.037500
 -9.554859  -3.469956  -3.232964  -0.023736
-13.685562  -7.745378 -10.701626  -0.023736
 -6.388340  -2.137711 -10.200259  -0.023737
-16.852079  -9.077624  -3.734331  -0.023736
 -1.641431  -4.850857 -11.677327   0.061035
 -6.812260  -6.364478  -2.257264   0.014556
 -3.645743 -10.458524  -9.224559   0.014556
 -0.353823  -1.961562  -8.252622   0.062265
-15.140551  -1.961562  -8.252622  -0.030060
 -8.099870  -9.253773  -5.681970  -0.030060
-18.307068  -3.646105  -1.285327  -0.030060
 -4.933351  -7.569229 -12.649265  -0.030060
-12.433908  -0.991435  -4.634226   0.018093
-10.806513 -10.223899  -9.300364   0.018093
 -9.267390  -4.616232 -11.601523   0.018092
-13.973031  -6.599103  -2.333069   0.018092
 -2.611138  -7.804863  -5.242192   0.057621
 -9.009072  -2.197196  -1.725103   0.076033
 -5.842555  -3.410472  -8.692398   0.076033
-14.649942  -5.823406  10.399162  -0.073599
-11.483425 -10.999596   3.431867  -0.073600
 -5.765862  -3.773242   5.438168  -0.124940
 -8.932379  -1.834425  12.405465  -0.124940
-15.353903  -7.442115   8.496422   0.091480
-12.187385  -9.380887   1.529127   0.091480
 -3.317384  -8.431016   4.846089  -0.132457
 -6.483903  -8.391986  11.813384  -0.132430
-14.635862  -2.823349   2.121208  -0.064290
 -5.231869  -7.745378   3.232964  -0.037501
 -8.398388  -9.077624  10.200259  -0.037501
-12.721376  -2.137711   3.734331  -0.023737
-15.887894  -3.469956  10.701626  -0.023737
 -7.974468  -4.850857   2.257264   0.061035
-11.140985  -0.756811   9.224559   0.061035
-13.145297  -6.364478  11.677327   0.014556
 -9.978777 -10.458524   4.710031   0.014556
 -6.686858  -1.961562   5.681970   0.062264
 -9.853377  -3.646105  12.649265   0.062265
-14.432905  -9.253773   8.252622  -0.030060
-11.266388  -7.569229   1.285327  -0.030060
 -2.352820 -10.223899   4.634226   0.092035
 -5.519338  -6.599103  11.601523   0.091971
-15.600425  -4.616232   2.333069   0.018092
 -5.777656  -9.018139   1.725103   0.057621
 -8.944173  -7.804863   8.692398   0.057620
-12.175590  -3.410472   5.242192   0.076033
 -0.567175  -7.442115   8.496422  -0.124940
 -2.546476  -6.789606   6.816578   0.058947
 -5.712980 -10.033396  13.783847   0.058947
 -3.015651  -2.784318   9.088503  -0.132430
 -1.101166  -3.469956  10.701626  -0.037501
 -3.980215  -0.991435   9.300364   0.091971
 -0.555381  -2.197196  12.209489   0.057621
 -3.733692  -9.380887  15.463717  -0.124940
 -6.182169  -2.823349  16.055798  -0.132430
 -4.267683  -2.137711  17.668923  -0.037500
 -2.812695  -7.569229  15.219917   0.062264
 -7.146734  -4.616232  16.267659   0.092007
 -1.983870   5.391929 -17.470020  -0.073599
 -8.604559   2.823349 -16.055798  -0.064291
 -3.221822   7.745378 -17.167556  -0.023737
 -0.479225   4.850857 -16.191854   0.014556
 -7.639994   4.616232 -16.267659   0.018092
 -2.676037   9.018139 -15.659693   0.076033
 -5.150388   0.215739 -10.502725  -0.073600
-14.923514   5.823406 -10.399162  -0.073601
 -8.316905   5.391929  -3.535428  -0.073601
 -2.599343   9.380887  -1.529127  -0.124941
 -5.854348   1.834425 -12.405465   0.091480
-14.219553   7.442115  -8.496422   0.091480
 -9.020866   3.773242  -5.438168   0.091480
-14.937594   2.823349  -2.121208  -0.064291
-11.469344   8.431016  -4.846089  -0.064291
-11.771077   2.784318  -9.088503  -0.064291
 -8.302825   8.391986 -11.813384  -0.064290
-16.852079   2.137711  -3.734331  -0.023736
 -9.554859   7.745378  -3.232964  -0.023736
-13.685562   3.469956 -10.701626  -0.023736
 -6.388340   9.077624 -10.200259  -0.023737
 -1.641431   6.364478 -11.677327   0.061035
 -4.807950  10.458524  -4.710031   0.061035
 -3.645743   0.756811  -9.224559   0.014556
 -6.812260   4.850857  -2.257264   0.014556
 -0.353823   9.253773  -8.252622   0.062264
 -3.520340   7.569229  -1.285327   0.062265
 -4.933351   3.646105 -12.649265  -0.030060
-15.140551   9.253773  -8.252622  -0.030060
 -8.099870   1.961562  -5.681970  -0.030060
-13.973031   4.616232  -2.333069   0.018093
-12.433908  10.223899  -4.634226   0.018093
-10.806513   0.991435  -9.300364   0.018093
 -9.267390   6.599103 -11.601523   0.018093
-17.397866   3.410472  -5.242192   0.076033
 -9.009072   9.018139  -1.725103   0.076033
-14.231347   2.197196 -12.209489   0.076033
 -5.842555   7.804863  -8.692398   0.075847
-11.483425   0.215739   3.431867  -0.073600
-14.649942   5.391929  10.399162  -0.073599
 -5.765862   7.442115   5.438168  -0.124941
 -8.932379   9.380887  12.405465  -0.124940
-12.187385   1.834425   1.529127   0.091480
-15.353903   3.773242   8.496422   0.091481
 -6.483903   2.823349  11.813384  -0.132457
 -3.317384   2.784318   4.846089  -0.132430
-14.635862   8.391986   2.121208  -0.064290
-18.104112   2.784318   4.846089  -0.064291
 -8.398388   2.137711  10.200259  -0.037501
 -5.231869   3.469956   3.232964  -0.037500
-12.721376   9.077624   3.734331  -0.023737
 -7.974468   6.364478   2.257264   0.061035
-11.140985  10.458524   9.224559   0.061035
 -9.978777   0.756811   4.710031   0.014556
-13.145297   4.850857  11.677327   0.014556
 -6.686858   9.253773   5.681970   0.062264
 -9.853377   7.569229  12.649265   0.062264
-11.266388   3.646105   1.285327  -0.030060
-14.432905   1.961562   8.252622  -0.030060
 -5.519338   4.616232  11.601523   0.091998
 -2.352820   0.991435   4.634226   0.092007
-15.600425   6.599103   2.333069   0.018093
-17.139548   0.991435   4.634226   0.018092
 -8.944173   3.410472   8.692398   0.057620
 -5.777656   2.197196   1.725103   0.057621
-12.175590   7.804863   5.242192   0.076033
 -0.567175   3.773242   8.496422  -0.124940
 -5.712980   1.181939  13.783847   0.058947
 -2.546476   4.425729   6.816578   0.058947
 -3.015651   8.431016   9.088503  -0.132430
 -1.101166   7.745378  10.701626  -0.037500
 -0.813697   6.599103   2.333069   0.092035
 -3.980215  10.223899   9.300364   0.091971
 -0.555381   9.018139  12.209489   0.057621
 -3.733692   1.834425  15.463717  -0.124940
 -6.182169   8.391986  16.055798  -0.132457
 -1.525086   0.756811  18.644622   0.061035
 -2.812695   3.646105  15.219917   0.062265
 -7.146734   6.599103  16.267659   0.092035
 -8.316905  16.607263  -3.535428  -0.073600
 -5.150388  11.431073 -10.502725  -0.073599
 -9.020866  14.988554  -5.438168   0.091480
 -5.854348  13.049783 -12.405465   0.091480
 -0.150866  14.038684  -2.121208  -0.132457
 -2.065351  13.353046  -3.734331  -0.037500
 -6.812260  16.066191  -2.257264   0.014556
 -3.645743  11.972145  -9.224559   0.014556
 -3.520340  18.784564  -1.285327   0.062264
 -8.099870  13.176897  -5.681970  -0.030060
-10.806513  12.206770  -9.300364   0.018093
 -2.611138  14.625806  -5.242192   0.057621
-11.483425  11.431073   3.431867  -0.073600
-12.187385  13.049783   1.529127   0.091480
 -3.317384  13.999653   4.846089  -0.132457
 -6.483903  14.038684  11.813384  -0.132430
 -5.231869  14.685291   3.232964  -0.037501
 -8.398388  13.353046  10.200259  -0.037501
 -7.974468  17.579813   2.257264   0.061035
 -9.978777  11.972145   4.710031   0.014556
-11.266388  14.861440   1.285327  -0.030060
 -2.352820  12.206770   4.634226   0.092035
 -5.777656  13.412531   1.725103   0.057621
 -8.944173  14.625806   8.692398   0.057620
 -0.567175  14.988554   8.496422  -0.124940
 -2.546476  15.641064   6.816578   0.058947
 -5.712980  12.397273  13.783847   0.058947
 -0.813697  17.814437   2.333069   0.092035
  0.567175 -14.988554  -8.496422  -0.124940
  0.813697 -17.814437  -2.333069   0.091999
 11.483425 -11.431073  -3.431867  -0.073600
 12.187385 -13.049783  -1.529127   0.091480
  3.317384 -13.999653  -4.846089  -0.132458
  6.483903 -14.038684 -11.813384  -0.132457
  5.231869 -14.685291  -3.232964  -0.037501
  8.398388 -13.353046 -10.200259  -0.037501
  7.974468 -17.579813  -2.257264   0.061035
  9.978777 -11.972145  -4.710031   0.014556
 11.266388 -14.861440  -1.285327  -0.030060
  2.352820 -12.206770  -4.634226   0.091999
  5.777656 -13.412531  -1.725103   0.057620
  8.944173 -14.625806  -8.692398   0.057621
  8.316905 -16.607263   3.535428  -0.073599
  5.150388 -11.431073  10.502725  -0.073600
  9.020866 -14.988554   5.438168   0.091481
  5.854348 -13.049783  12.405465   0.091480
  0.150866 -14.038684   2.121208  -0.132457
  2.065351 -13.353046   3.734331  -0.036985
  6.812260 -16.066191   2.257264   0.014556
  3.645743 -11.972145   9.224559   0.014556
  3.520340 -18.784564   1.285327   0.062265
  8.099870 -13.176897   5.681970  -0.030060
 10.806513 -12.206770   9.300364   0.018092
  2.611138 -14.625806   5.242192   0.057104
  3.733692  -1.834425 -15.463717  -0.124940
  6.182169  -8.391986 -16.055798  -0.132430
  1.525086  -0.756811 -18.644622   0.061035
  2.812695  -3.646105 -15.219917   0.062265
  7.146734  -6.599103 -16.267659   0.091971
  6.953092 -10.033396 -14.085335   0.058947
  0.567175  -3.773242  -8.496422  -0.124941
  3.015651  -8.431016  -9.088503  -0.132457
  1.101166  -7.745378 -10.701626  -0.037502
  3.980215 -10.223899  -9.300364   0.092035
  0.813697  -6.599103  -2.333069   0.091999
  0.555381  -9.018139 -12.209489   0.057621
 14.649942  -5.391929 -10.399162  -0.073601
 11.483425  -0.215739  -3.431867  -0.073599
  5.765862  -7.442115  -5.438168  -0.124940
  8.932379  -9.380887 -12.405465  -0.124940
 15.353903  -3.773242  -8.496422   0.091480
 12.187385  -1.834425  -1.529127   0.091481
  3.786574  -6.789606  -7.118040   0.058947
  0.620044 -10.033396  -0.150717   0.058946
  3.317384  -2.784318  -4.846089  -0.132457
  6.483903  -2.823349 -11.813384  -0.132430
 18.104112  -2.784318  -4.846089  -0.064290
 14.635862  -8.391986  -2.121208  -0.064291
  5.231869  -3.469956  -3.232964  -0.036985
  8.398388  -2.137711 -10.200259  -0.037500
 12.721376  -9.077624  -3.734331  -0.023736
  7.974468  -6.364478  -2.257264   0.061035
 11.140985 -10.458524  -9.224559   0.061035
 13.145297  -4.850857 -11.677327   0.014556
  9.978777  -0.756811  -4.710031   0.014556
  6.686858  -9.253773  -5.681970   0.062264
  9.853377  -7.569229 -12.649265   0.062264
 14.432905  -1.961562  -8.252622  -0.030060
 11.266388  -3.646105  -1.285327  -0.030060
  2.352820  -0.991435  -4.634226   0.091999
  5.519338  -4.616232 -11.601523   0.092007
 17.139548  -0.991435  -4.634226   0.018093
 15.600425  -6.599103  -2.333069   0.018092
  5.777656  -2.197196  -1.725103   0.057104
  8.944173  -3.410472  -8.692398   0.057621
 12.175590  -7.804863  -5.242192   0.076033
  8.316905  -5.391929   3.535428  -0.073599
 14.923514  -5.823406  10.399162  -0.073599
  5.150388  -0.215739  10.502725  -0.073600
  2.599343  -9.380887   1.529127  -0.124940
  9.020866  -3.773242   5.438168   0.091481
 14.219553  -7.442115   8.496422   0.091480
  5.854348  -1.834425  12.405465   0.091481
 14.937594  -2.823349   2.121208  -0.064290
 11.771077  -2.784318   9.088503  -0.064290
 11.469344  -8.431016   4.846089  -0.064291
  8.302825  -8.391986  11.813384  -0.064291
 16.852079  -2.137711   3.734331  -0.023737
 13.685562  -3.469956  10.701626  -0.023737
  9.554859  -7.745378   3.232964  -0.023737
  6.388340  -9.077624  10.200259  -0.023737
  1.641431  -6.364478  11.677327   0.061035
  4.807950 -10.458524   4.710031   0.061035
  6.812260  -4.850857   2.257264   0.014556
  3.645743  -0.756811   9.224559   0.014556
  0.353823  -9.253773   8.252622   0.062264
  3.520340  -7.569229   1.285327   0.062264
  8.099870  -1.961562   5.681970  -0.030060
 15.140551  -9.253773   8.252622  -0.030060
  4.933351  -3.646105  12.649265  -0.030060
 13.973031  -4.616232   2.333069   0.018092
 10.806513  -0.991435   9.300364   0.018092
 12.433908 -10.223899   4.634226   0.018093
  9.267390  -6.599103  11.601523   0.018092
 17.397866  -3.410472   5.242192   0.076033
 14.231347  -2.197196  12.209489   0.076033
  9.009072  -9.018139   1.725103   0.076033
  5.842555  -7.804863   8.692398   0.076033
  1.983870  -5.391929  17.470020  -0.073601
  8.604559  -2.823349  16.055798  -0.064291
  3.221822  -7.745378  17.167556  -0.023736
  0.479225  -4.850857  16.191854   0.014556
  7.639994  -4.616232  16.267659   0.018092
  2.676037  -9.018139  15.659693   0.076033
  3.733692   9.380887 -15.463717  -0.124940
  6.182169   2.823349 -16.055798  -0.132457
  4.267683   2.137711 -17.668923  -0.037501
  2.812695   7.569229 -15.219917   0.062264
  7.146734   4.616232 -16.267659   0.091998
  6.953092   1.181939 -14.085335   0.058947
  0.567175   7.442115  -8.496422  -0.124940
  3.015651   2.784318  -9.088503  -0.132458
  1.101166   3.469956 -10.701626  -0.037501
  3.980215   0.991435  -9.300364   0.092035
  0.555381   2.197196 -12.209489   0.057621
 14.649942   5.823406 -10.399162  -0.073601
 11.483425  10.999596  -3.431867  -0.073600
  8.932379   1.834425 -12.405465  -0.124940
  5.765862   3.773242  -5.438168  -0.124940
 15.353903   7.442115  -8.496422   0.091480
 12.187385   9.380887  -1.529127   0.091480
  3.786574   4.425729  -7.118040   0.058947
  3.317384   8.431016  -4.846089  -0.132458
  6.483903   8.391986 -11.813384  -0.132457
 14.635862   2.823349  -2.121208  -0.064291
  5.231869   7.745378  -3.232964  -0.037501
  8.398388   9.077624 -10.200259  -0.037501
 12.721376   2.137711  -3.734331  -0.023736
 15.887894   3.469956 -10.701626  -0.023736
 11.140985   0.756811  -9.224559   0.061035
  7.974468   4.850857  -2.257264   0.061035
 13.145297   6.364478 -11.677327   0.014556
  9.978777  10.458524  -4.710031   0.014556
  9.853377   3.646105 -12.649265   0.062265
  6.686858   1.961562  -5.681970   0.062265
 14.432905   9.253773  -8.252622  -0.030060
 11.266388   7.569229  -1.285327  -0.030060
  2.352820  10.223899  -4.634226   0.091999
  5.519338   6.599103 -11.601523   0.092035
 15.600425   4.616232  -2.333069   0.018093
  5.777656   9.018139  -1.725103   0.057620
  8.944173   7.804863  -8.692398   0.057621
 12.175590   3.410472  -5.242192   0.076033
 18.090031   0.215739   3.431867  -0.073600
  8.316905   5.823406   3.535428  -0.073599
 14.923514   5.391929  10.399162  -0.073599
  5.150388  10.999596  10.502725  -0.073600
 17.386071   1.834425   1.529127   0.091480
  9.020866   7.442115   5.438168   0.091481
 14.219553   3.773242   8.496422   0.091481
  5.854348   9.380887  12.405465   0.091480
  0.150866   8.391986   2.121208  -0.132457
  8.302825   2.823349  11.813384  -0.064291
 14.937594   8.391986   2.121208  -0.064290
 11.771077   8.431016   9.088503  -0.064290
 11.469344   2.784318   4.846089  -0.064291
  2.065351   9.077624   3.734331  -0.036985
  6.388340   2.137711  10.200259  -0.023737
 16.852079   9.077624   3.734331  -0.023737
 13.685562   7.745378  10.701626  -0.023737
  9.554859   3.469956   3.232964  -0.023736
  1.641431   4.850857  11.677327   0.061035
  6.812260   6.364478   2.257264   0.014556
  3.645743  10.458524   9.224559   0.014556
  0.353823   1.961562   8.252622   0.062264
 18.307068   3.646105   1.285327  -0.030060
  8.099870   9.253773   5.681970  -0.030060
 15.140551   1.961562   8.252622  -0.030060
  4.933351   7.569229  12.649265  -0.030060
  9.267390   4.616232  11.601523   0.018092
 13.973031   6.599103   2.333069   0.018093
 10.806513  10.223899   9.300364   0.018092
 12.433908   0.991435   4.634226   0.018092
  2.611138   7.804863   5.242192   0.057104
  5.842555   3.410472   8.692398   0.076033
  9.009072   2.197196   1.725103   0.076034
  1.983870   5.823406  17.470020  -0.073601
 11.053036   1.834425  15.463717   0.091480
  3.221822   3.469956  17.167556  -0.023736
  0.479225   6.364478  16.191854   0.014556
  6.100871   0.991435  18.568818   0.018093
  7.639994   6.599103  16.267659   0.018093
  2.676037   2.197196  15.659693   0.076033
  3.015651  13.999653  -9.088503  -0.132457
  1.101166  14.685291 -10.701626  -0.037502
  3.980215  12.206770  -9.300364   0.092035
  0.813697  15.831567  -2.333069   0.091999
  0.555381  13.412531 -12.209489   0.057621
  5.765862  14.988554  -5.438168  -0.124940
  3.786574  15.641064  -7.118040   0.058947
  0.620044  12.397273  -0.150717   0.058946
 12.721376  13.353046  -3.734331  -0.023736
  7.974468  16.066191  -2.257264   0.061035
 11.140985  11.972145  -9.224559   0.061035
  6.686858  13.176897  -5.681970   0.062264
  8.316905  17.038741   3.535428  -0.073599
  2.599343  13.049783   1.529127  -0.124940
 11.469344  13.999653   4.846089  -0.064291
  9.554859  14.685291   3.232964  -0.023737
  6.388340  13.353046  10.200259  -0.023737
  4.807950  11.972145   4.710031   0.061035
  6.812260  17.579813   2.257264   0.014556
  0.353823  13.176897   8.252622   0.062264
  3.520340  14.861440   1.285327   0.062264
 12.433908  12.206770   4.634226   0.018093
  9.009072  13.412531   1.725103   0.076033
  5.842555  14.625806   8.692398   0.076033
-64.859892 -43.679400  13.783847   0.056855
-65.343161 -39.469410  24.333753  -0.007571
-66.047122 -41.088097  22.431013  -0.126976
-71.192940 -43.679400  27.718465   0.056741
-68.026410 -40.435611  20.751142   0.056841
-68.495599 -36.430323  23.023093  -0.134513
-65.329081 -36.469353  16.055798  -0.134449
-66.581114 -37.115962  24.636217  -0.039489
-63.838516 -40.010483  25.611918   0.059108
-65.126125 -42.899777  22.187213   0.060234
-69.460163 -34.637440  23.234955   0.089936
-66.293645 -38.262236  16.267660   0.089986
-66.035328 -35.843201  26.144080   0.055677
-68.509679 -44.645601  31.301049  -0.007695
-71.676197 -39.469410  38.268344  -0.007687
-66.662596 -33.861743  38.371906  -0.075464
-69.213640 -43.026914  29.398308  -0.127058
-72.380158 -41.088097  36.365604  -0.127091
-65.958635 -35.480452  40.274647   0.089631
-77.525964 -43.679400  41.653028   0.056638
-74.359458 -40.435611  34.685761   0.056728
-63.979347 -34.827944  41.954517  -0.010217
-71.662117 -36.469353  29.990389  -0.134572
-74.828635 -36.430323  36.957684  -0.134601
-69.747632 -35.783714  31.603513  -0.039017
-72.914150 -37.115962  38.570808  -0.039606
-65.424643 -42.723629  38.069442  -0.025671
-67.005034 -44.104528  32.579213   0.058996
-70.171552 -40.010483  39.546508   0.058991
-65.000723 -38.496861  30.126446   0.012638
-68.167241 -34.402815  37.093742   0.012628
-68.292643 -41.215234  29.154509   0.060197
-71.459161 -42.899777  36.121804   0.060120
-63.713114 -35.607566  33.551151  -0.031877
-66.879632 -37.292110  40.518446  -0.031959
-72.626681 -38.262236  30.202250   0.089867
-75.793199 -34.637440  37.169546   0.089791
-69.201846 -37.056475  33.111375   0.055084
-72.368364 -35.843201  40.078670   0.055558
-65.970429 -41.450868  36.561580   0.074088
-74.842715 -44.645601  45.235640  -0.007800
-78.009233 -39.469410  52.202935  -0.007790
-69.829113 -39.037934  45.339202  -0.075583
-72.995631 -33.861743  52.306497  -0.075576
-75.546676 -43.026914  43.332899  -0.127166
-78.713194 -41.088097  50.300195  -0.127193
-69.125153 -37.419224  47.241942   0.089552
-63.926466 -41.088097  50.300195   0.089695
-72.291671 -35.480452  54.209238   0.089522
-83.859012 -43.679400  55.587647   0.056543
-80.692482 -40.435611  48.620324   0.056626
-69.072284 -43.679400  55.587647  -0.010391
-67.145865 -38.071732  48.921813  -0.010313
-65.905754 -40.435611  48.620324  -0.010303
-81.161671 -36.430323  50.892275  -0.134732
-77.995153 -36.469353  43.924980  -0.134682
-69.843194 -42.037991  53.617157  -0.066250
-66.374943 -36.430323  50.892275  -0.066096
-66.676676 -42.077020  46.649861  -0.066199
-79.247185 -37.115962  52.505399  -0.039710
-76.080668 -35.783714  45.538104  -0.039645
-71.757679 -42.723629  52.004033  -0.025775
-64.460458 -37.115962  52.505399  -0.025477
-68.591161 -41.391382  45.036737  -0.025708
-73.338070 -44.104528  46.513804   0.058890
-76.504588 -40.010483  53.481099   0.058888
-71.333759 -38.496861  44.061037   0.012523
-74.500277 -34.402815  51.028333   0.012517
-74.625679 -41.215234  43.089100   0.060088
-77.792197 -42.899777  50.056395   0.060019
-70.046150 -35.607566  47.485742  -0.031995
-73.212668 -37.292110  54.453037  -0.032066
-82.126235 -34.637440  51.104137   0.089716
-78.959717 -38.262236  44.136841   0.089761
-68.878630 -40.245107  53.405295   0.016183
-67.339507 -34.637440  51.104137   0.016280
-65.712112 -43.869904  46.438000   0.016193
-64.172989 -38.262236  44.136841   0.016293
-78.701399 -35.843201  54.013261   0.055454
-75.534882 -37.056475  47.045966   0.055491
-72.303465 -41.450868  50.496171   0.073981
-63.914672 -35.843201  54.013261   0.074333
-69.136947 -42.664143  43.528875   0.074018
-64.859892 -32.464065  13.783847   0.057011
-65.343161 -28.254075  24.333753  -0.007424
-66.047122 -29.872784  22.431013  -0.126829
-68.026410 -29.220276  20.751142   0.056987
-71.192940 -32.464065  27.718465   0.056881
-68.495599 -25.214989  23.023093  -0.134370
-65.329081 -25.254018  16.055798  -0.134271
-66.581114 -25.900627  24.636217  -0.038829
-63.838516 -28.795148  25.611918   0.059256
-65.126125 -31.684442  22.187213   0.060382
-69.460163 -23.422105  23.234955   0.090075
-66.293645 -27.046901  16.267660   0.090108
-66.035328 -24.627866  26.144080   0.055303
-71.676197 -28.254075  38.268344  -0.007555
-68.509679 -33.430266  31.301049  -0.007556
-66.662596 -22.646408  38.371906  -0.075332
-72.380158 -29.872784  36.365604  -0.126958
-69.213640 -31.811557  29.398308  -0.126920
-65.958635 -24.265095  40.274647   0.089765
-74.359458 -29.220276  34.685761   0.056860
-77.525964 -32.464065  41.653028   0.056767
-63.979347 -23.612609  41.954517  -0.010086
-71.662117 -25.254018  29.990389  -0.134437
-74.828635 -25.214989  36.957684  -0.134471
-69.747632 -24.568380  31.603513  -0.038882
-72.914150 -25.900627  38.570808  -0.039476
-65.424643 -31.508294  38.069442  -0.025534
-70.171552 -28.795148  39.546508   0.059123
-67.005034 -32.889194  32.579213   0.059136
-65.000723 -27.281526  30.126446   0.012780
-68.167241 -23.187480  37.093742   0.012760
-71.459161 -31.684442  36.121804   0.060254
-68.292643 -29.999899  29.154509   0.060336
-63.713114 -24.392232  33.551151  -0.031738
-66.879632 -26.076775  40.518446  -0.031826
-72.626681 -27.046901  30.202250   0.090002
-75.793199 -23.422105  37.169546   0.089919
-69.201846 -25.841141  33.111375   0.055219
-72.368364 -24.627866  40.078670   0.055688
-65.970429 -30.235533  36.561580   0.074225
-78.009233 -28.254075  52.202935  -0.007666
-74.842715 -33.430266  45.235640  -0.007670
-69.829113 -27.822599  45.339202  -0.075454
-72.995631 -22.646408  52.306497  -0.075451
-78.713194 -29.872784  50.300195  -0.127068
-75.546676 -31.811557  43.332899  -0.127037
-69.125153 -26.203912  47.241942   0.089680
-63.926466 -29.872784  50.300195   0.089824
-72.291671 -24.265095  54.209238   0.089647
-80.692482 -29.220276  48.620324   0.056751
-83.859012 -32.464065  55.587647   0.056666
-67.145865 -26.856398  48.921813  -0.010184
-65.905754 -29.220276  48.620324  -0.010173
-69.072284 -32.464065  55.587647  -0.010265
-81.161671 -25.214989  50.892275  -0.134608
-77.995153 -25.254018  43.924980  -0.134529
-66.374943 -25.214989  50.892275  -0.065968
-66.676676 -30.861685  46.649861  -0.066069
-69.843194 -30.822656  53.617157  -0.066124
-79.247185 -25.900627  52.505399  -0.039070
-76.080668 -24.568380  45.538104  -0.039518
-64.460458 -25.900627  52.505399  -0.025351
-68.591161 -30.176047  45.036737  -0.025578
-71.757679 -31.508294  52.004033  -0.025648
-76.504588 -28.795148  53.481099   0.059012
-73.338070 -32.889194  46.513804   0.059019
-71.333759 -27.281526  44.061037   0.012652
-74.500277 -23.187480  51.028333   0.012641
-77.792197 -31.684442  50.056395   0.060144
-74.625679 -29.999899  43.089100   0.060216
-70.046150 -24.392232  47.485742  -0.031868
-73.212668 -26.076775  54.453037  -0.031942
-82.126235 -23.422105  51.104137   0.089838
-78.959717 -27.046901  44.136841   0.089859
-67.339507 -23.422105  51.104137   0.016405
-65.712112 -32.654569  46.438000   0.016324
-64.172989 -27.046901  44.136841   0.016424
-68.878630 -29.029773  53.405295   0.016308
-78.701399 -24.627866  54.013261   0.055061
-75.534882 -25.841141  47.045966   0.055617
-63.914672 -24.627866  54.013261   0.074459
-69.136947 -31.448808  43.528875   0.074149
-72.303465 -30.235533  50.496171   0.074107
-64.859892 -21.248730  13.783847   0.057161
-65.343161 -17.038740  24.333753  -0.007286
-66.047122 -18.657427  22.431013  -0.126688
-71.192940 -21.248730  27.718465   0.057015
-68.026410 -18.004941  20.751142   0.057125
-68.495599 -13.999654  23.023093  -0.134238
-65.329081 -14.038683  16.055798  -0.134159
-66.581114 -14.685292  24.636217  -0.039211
-63.838516 -17.579813  25.611918   0.059396
-65.126125 -20.469108  22.187213   0.060527
-69.460163 -12.206770  23.234955   0.090205
-66.293645 -15.831567  16.267660   0.090277
-66.035328 -13.412531  26.144080   0.055952
-68.509679 -22.214931  31.301049  -0.007421
-71.676197 -17.038740  38.268344  -0.007429
-66.662596 -11.431073  38.371906  -0.075208
-69.213640 -20.596245  29.398308  -0.126784
-72.380158 -18.657427  36.365604  -0.126830
-65.958635 -13.049782  40.274647   0.089888
-77.525964 -21.248730  41.653028   0.056892
-74.359458 -18.004941  34.685761   0.056987
-63.979347 -12.397274  41.954517  -0.009961
-71.662117 -14.038683  29.990389  -0.134310
-74.828635 -13.999654  36.957684  -0.134348
-69.747632 -13.353045  31.603513  -0.038755
-72.914150 -14.685292  38.570808  -0.039351
-65.424643 -20.292959  38.069442  -0.025402
-67.005034 -21.673859  32.579213   0.059271
-70.171552 -17.579813  39.546508   0.059250
-65.000723 -16.066191  30.126446   0.012914
-68.167241 -11.972146  37.093742   0.012885
-68.292643 -18.784564  29.154509   0.060471
-71.459161 -20.469108  36.121804   0.060383
-63.713114 -13.176897  33.551151  -0.031609
-66.879632 -14.861440  40.518446  -0.031701
-72.626681 -15.831567  30.202250   0.090131
-75.793199 -12.206770  37.169546   0.090041
-69.201846 -14.625806  33.111375   0.055347
-72.368364 -13.412531  40.078670   0.055811
-65.970429 -19.020198  36.561580   0.074356
-74.842715 -22.214931  45.235640  -0.007546
-78.009233 -17.038740  52.202935  -0.007545
-69.829113 -16.607264  45.339202  -0.075330
-72.995631 -11.431073  52.306497  -0.075333
-75.546676 -20.596245  43.332899  -0.126912
-78.713194 -18.657427  50.300195  -0.126946
-69.125153 -14.988555  47.241942   0.089802
-63.926466 -18.657427  50.300195   0.089948
-72.291671 -13.049782  54.209238   0.089765
-83.859012 -21.248730  55.587647   0.056787
-80.692482 -18.004941  48.620324   0.056872
-69.072284 -21.248730  55.587647  -0.010143
-67.145865 -15.641063  48.921813  -0.010063
-65.905754 -18.004941  48.620324  -0.010050
-81.161671 -13.999654  50.892275  -0.134489
-77.995153 -14.038683  43.924980  -0.134434
-69.843194 -19.607321  53.617157  -0.066001
-66.374943 -13.999654  50.892275  -0.065848
-66.676676 -19.646351  46.649861  -0.065943
-79.247185 -14.685292  52.505399  -0.039467
-76.080668 -13.353045  45.538104  -0.039398
-71.757679 -20.292959  52.004033  -0.025525
-64.460458 -14.685292  52.505399  -0.025229
-68.591161 -18.960712  45.036737  -0.025452
-73.338070 -21.673859  46.513804   0.059144
-76.504588 -17.579813  53.481099   0.059133
-71.333759 -16.066191  44.061037   0.012776
-74.500277 -11.972146  51.028333   0.012760
-74.625679 -18.784564  43.089100   0.060341
-77.792197 -20.469108  50.056395   0.060267
-70.046150 -13.176897  47.485742  -0.031747
-73.212668 -14.861440  54.453037  -0.031822
-82.126235 -12.206770  51.104137   0.089957
-78.959717 -15.831567  44.136841   0.090009
-68.878630 -17.814438  53.405295   0.016431
-67.339507 -12.206770  51.104137   0.016525
-65.712112 -21.439234  46.438000   0.016451
-64.172989 -15.831567  44.136841   0.016551
-78.701399 -13.412531  54.013261   0.055696