48
C22H24S2
S        0.541404392      2.103812230      0.508352521
C        1.440122392      1.747044230     -0.962780479
C       -0.136254608      0.508746230      0.515119521
C        2.285003392      2.619527230     -1.636774479
C        1.191133392      0.439498230     -1.428976479
C        0.285576392     -0.228947770     -0.549134479
C       -1.034574608     -0.179369770      1.388912521
C        2.901953392      2.194016230     -2.803046479
H        2.433019392      3.612445230     -1.251742479
C        1.803647392      0.031549230     -2.616232479
S       -0.447042608     -1.825278770     -0.591344479
C       -1.619725608      0.223783230      2.578054521
C       -1.300035608     -1.472189770      0.911155521
C        2.627667392      0.907938230     -3.288527479
C        3.846075392      3.101511230     -3.556046479
H        1.640275392     -0.973264770     -2.996106479
C       -2.445265608     -0.649621770      3.261724521
H       -1.437442608      1.222909230      2.953891521
C       -2.134938608     -2.352666770      1.571985521
H        3.059903392      0.581282230     -4.228949479
H        4.635254392      2.465761230     -3.973940479
H        4.326915392      3.760849230     -2.832785479
C       -2.694927608     -1.928555770      2.771354521
H       -2.926714608     -0.353401770      4.192384521
H       -2.370737608     -3.324948770      1.160540521
C       -3.582394608     -2.859999770      3.550780521
H       -4.383347608     -2.298667770      4.028816521
H       -4.091293608     -3.527089770      2.854259521
H        2.342761392      4.479071230     -4.096212479
H        2.649686392      3.273555230     -5.344179479
H       -2.103448608     -4.299734770      4.085351521
H       -2.439402608     -3.133718770      5.352693521
C        3.113786392      3.934289230     -4.615546479
C       -2.900536608     -3.755307770      4.576380521
H        4.506928392      5.615298230     -4.624267479
H        4.824350392      4.417724230     -5.863739479
H       -4.358078608     -5.394972770      4.518426521
H       -4.675512608     -4.197349770      5.757947521
C        4.012206392      4.961853230     -5.359870479
C       -3.863412608     -4.741557770      5.254091521
C        3.241150392      5.811214230     -6.376831479
H        3.900927392      6.500865230     -6.921411479
H        2.739793392      5.184627230     -7.128371479
H        2.463963392      6.414268230     -5.887677479
C       -3.092265608     -5.590862770      6.271023521
H       -3.752068608     -6.280501770      6.815586521
H       -2.590923608     -4.964279770      7.022577521
H       -2.315090608     -6.193935770      5.781869521
