717
C329H358S30
S        0.541404392      2.103812230      0.508352521
C        1.440122392      1.747044230     -0.962780479
C       -0.136254608      0.508746230      0.515119521
C        2.285003392      2.619527230     -1.636774479
C        1.191133392      0.439498230     -1.428976479
C        0.285576392     -0.228947770     -0.549134479
C       -1.034574608     -0.179369770      1.388912521
C        2.901953392      2.194016230     -2.803046479
H        2.433019392      3.612445230     -1.251742479
C        1.803647392      0.031549230     -2.616232479
S       -0.447042608     -1.825278770     -0.591344479
C       -1.619725608      0.223783230      2.578054521
C       -1.300035608     -1.472189770      0.911155521
C        2.627667392      0.907938230     -3.288527479
C        3.846075392      3.101511230     -3.556046479
H        1.640275392     -0.973264770     -2.996106479
C       -2.445265608     -0.649621770      3.261724521
H       -1.437442608      1.222909230      2.953891521
C       -2.134938608     -2.352666770      1.571985521
H        3.059903392      0.581282230     -4.228949479
H        4.635254392      2.465761230     -3.973940479
H        4.326915392      3.760849230     -2.832785479
C       -2.694927608     -1.928555770      2.771354521
H       -2.926714608     -0.353401770      4.192384521
H       -2.370737608     -3.324948770      1.160540521
C       -3.582394608     -2.859999770      3.550780521
H       -4.383347608     -2.298667770      4.028816521
H       -4.091293608     -3.527089770      2.854259521
H        2.342761392      4.479071230     -4.096212479
H        2.649686392      3.273555230     -5.344179479
H       -2.103448608     -4.299734770      4.085351521
H       -2.439402608     -3.133718770      5.352693521
C        3.113786392      3.934289230     -4.615546479
C       -2.900536608     -3.755307770      4.576380521
H        4.506928392      5.615298230     -4.624267479
H        4.824350392      4.417724230     -5.863739479
H       -4.358078608     -5.394972770      4.518426521
H       -4.675512608     -4.197349770      5.757947521
C        4.012206392      4.961853230     -5.359870479
C       -3.863412608     -4.741557770      5.254091521
C        3.241150392      5.811214230     -6.376831479
H        3.900927392      6.500865230     -6.921411479
H        2.739793392      5.184627230     -7.128371479
H        2.463963392      6.414268230     -5.887677479
C       -3.092265608     -5.590862770      6.271023521
H       -3.752068608     -6.280501770      6.815586521
H       -2.590923608     -4.964279770      7.022577521
H       -2.315090608     -6.193935770      5.781869521
H       -2.879877608     -4.024974770     -1.245348479
C       -3.085504608     -5.016544770     -1.644420479
C       -2.471689608     -5.432356770     -2.830855479
C       -3.959214608     -5.882357770     -0.979999479
C       -2.762685608     -6.717101770     -3.341676479
C       -1.550413608     -4.497497770     -3.576981479
C       -4.241670608     -7.185954770     -1.486037479
S       -4.805560608     -5.547549770      0.524139521
C       -3.630051608     -7.586366770     -2.688914479
H       -2.279106608     -7.034197770     -4.264860479
C       -2.299038608     -3.650032770     -4.623936479
H       -1.048318608     -3.830789770     -2.861987479
H       -0.752487608     -5.076900770     -4.064035479
C       -5.141546608     -7.872068770     -0.609359479
C       -5.528829608     -7.133901770      0.503547521
H       -3.826114608     -8.578020770     -3.093465479
C       -1.397376608     -2.651289770     -5.359878479
H       -3.124556608     -3.114689770     -4.129818479
H       -2.782905608     -4.317588770     -5.354102479
S       -5.864786608     -9.458433770     -0.629946479
C       -6.428628608     -7.820053770      1.380273521
C       -2.168466608     -1.801950770     -6.376829479
H       -0.902675608     -1.997854770     -4.624254479
H       -0.585249608     -3.195447770     -5.863744479
C       -6.711181608     -9.123598770      0.874158521
C       -7.040347608     -7.419582770      2.583081521
H       -1.508681608     -1.112302770     -6.921403479
H       -2.669818608     -2.428533770     -7.128375479
H       -2.945648608     -1.198886770     -5.887677479
C       -7.584826608     -9.989440770      1.538628521
C       -7.907644608     -8.288885770      3.235885521
H       -6.844234608     -6.427955770      2.987663521
C       -8.198680608     -9.573611770      2.725035521
H       -7.790477608    -10.981000770      1.139542521
H       -8.391248608     -7.971778770      4.159052521
C       -9.119945608    -10.508475770      3.471170521
C       -8.371318608    -11.355940770      4.518125521
H       -9.917869608     -9.929075770      3.958231521
H       -9.622036608    -11.175188770      2.756179521
C       -9.272975608    -12.354684770      5.254071521
H       -7.545798608    -11.891288770      4.024014521
H       -7.887450608    -10.688391770      5.248296521
C       -8.501890608    -13.204027770      6.271024521
H       -9.767679608    -13.008120770      4.518449521
H      -10.085105608    -11.810530770      5.757937521
H       -9.161675608    -13.893674770      6.815598521
H       -8.000538608    -12.577442770      7.022568521
H       -7.724707608    -13.807088770      5.781870521
H       -6.778790608     -4.278127770      4.024015521
C       -7.604310608     -3.742779770      4.518125521
H       -7.120443608     -3.075230770      5.248296521
C       -8.352938608     -2.895314770      3.471170521
C       -8.505967608     -4.741524770      5.254071521
C       -7.431671608     -1.960452770      2.725036521
H       -9.150862608     -2.315914770      3.958231521
H       -8.855029608     -3.562028770      2.756179521
C       -7.734882608     -5.590867770      6.271024521
H       -9.000672608     -5.394959770      4.518450521
H       -9.318097608     -4.197370770      5.757937521
C       -6.817819608     -2.376279770      1.538627521
C       -7.140637608     -0.675724770      3.235885521
H       -8.394667608     -6.280514770      6.815599521
H       -7.233531608     -4.964281770      7.022568521
H       -6.957700608     -6.193927770      5.781870521
C       -5.944173608     -1.510438770      0.874159521
H       -7.023469608     -3.367840770      1.139542521
C       -6.273339608      0.193577230      2.583081521
H       -7.624241608     -0.358617770      4.159052521
S       -5.097778608     -1.845273770     -0.629946479
C       -5.661621608     -0.206892770      1.380272521
H       -6.077227608      1.185205230      2.987663521
C       -4.374539608     -0.258907770     -0.609359479
C       -4.761821608      0.479259230      0.503548521
C       -3.474661608      0.427205230     -1.486037479
S       -4.038552608      2.065610230      0.524139521
C       -2.863043608      0.026793230     -2.688914479
C       -3.192206608      1.730802230     -0.979999479
H       -3.059107608     -0.964860770     -3.093465479
C       -1.995678608      0.896058230     -3.341676479
C       -2.318496608      2.596616230     -1.644420479
C       -1.704681608      2.180803230     -2.830854479
H       -1.512098608      0.578963230     -4.264860479
H       -2.112870608      3.588185230     -1.245348479
C       -0.783406608      3.115663230     -3.576981479
C       -1.532031608      3.963128230     -4.623937479
H       -0.281311608      3.782370230     -2.861987479
H        0.014519392      2.536259230     -4.064035479
C       -0.630368608      4.961871230     -5.359878479
H       -2.357549608      4.498470230     -4.129818479
H       -2.015897608      3.295572230     -5.354102479
C       -1.401459608      5.811210230     -6.376829479
H       -0.135667608      5.615306230     -4.624254479
H        0.181758392      4.417712230     -5.863744479
H       -0.741673608      6.500857230     -6.921403479
H       -1.902810608      5.184626230     -7.128375479
H       -2.178641608      6.414273230     -5.887677479
H       -5.088377608     -8.011272770      6.378320521
C       -5.748182608     -8.700910770      6.922882521
H       -6.249526608     -9.327500770      6.171335521
H       -6.525358608     -8.097845770      7.412042521
C       -4.977038608     -9.550216770      7.939813521
C       -5.878741608    -10.548939770      8.675723521
H       -4.482369608     -8.896807770      8.675482521
H       -4.164935608    -10.094427770      7.435963521
C       -5.130201608    -11.396440770      9.722700521
H       -6.704253608    -10.013661770      9.169917521
H       -6.362602608    -11.216569770      7.945621521
C       -6.051059608    -12.331493770     10.469093521
H       -4.332233608    -11.975858770      9.235721521
H       -4.628048608    -10.729797770     10.437714521
C       -6.665393608    -11.915408770     11.655169521
C       -6.342597608    -13.615955770      9.957890521
C       -7.538814608    -12.781370770     12.319778521
H       -6.459553608    -10.923945770     12.054387521
C       -7.209636608    -14.485382770     10.610882521
H       -5.858777608    -13.933177770      9.034872521
C       -7.821446608    -14.084883770     11.813635521
S       -8.385265608    -12.446501770     13.823843521
H       -7.405817608    -15.476973770     10.206253521
C       -8.721280608    -14.771021770     12.690338521
C       -9.108481608    -14.032879770     13.803290521
S       -9.444489608    -16.357402770     12.669784521
C      -10.008299608    -14.719026770     14.680002521
C      -10.290950608    -16.022529770     14.173843521
C      -10.620131608    -14.318513770     15.882740521
C      -11.164357608    -16.888496770     14.838462521
C      -11.487151608    -15.187951770     16.535744521
H      -10.423938608    -13.326929770     16.287377521
C      -11.778704608    -16.472406770     16.024529521
H      -11.370203608    -17.879956770     14.439241521
H      -11.970980608    -14.870725770     17.458756521
C      -12.699555608    -17.407460770     16.770928521
H      -13.497523608    -16.828044770     17.257906521
C      -11.951017608    -18.254962770     17.817904521
H      -13.201709608    -18.074104770     16.055914521
C      -12.852718608    -19.253686770     18.553816521
H      -11.125503608    -18.790242770     17.323712521
H      -11.467155608    -17.587333770     18.548008521
H      -13.664821608    -18.709476770     19.057667521
C      -12.081574608    -20.102992770     19.570748521
H      -13.347387608    -19.907094770     17.818146521
H      -12.741380608    -20.792629770     20.115309521
H      -11.580232608    -19.476402770     20.322294521
H      -11.304398608    -20.706056770     19.081585521
H       -5.091769608     -6.320016770      9.034872521
C       -5.575588608     -6.002795770      9.957891521
C       -5.284054608     -4.718331770     10.469092521
C       -6.442627608     -6.872223770     10.610882521
C       -5.898385608     -4.302248770     11.655170521
C       -4.363192608     -3.783280770      9.722701521
C       -7.054441608     -6.471721770     11.813633521
H       -6.638810608     -7.863813770     10.206253521
C       -6.771805608     -5.168210770     12.319779521
H       -5.692546608     -3.310785770     12.054387521
C       -5.111733608     -2.935780770      8.675724521
H       -3.565225608     -4.362697770      9.235721521
H       -3.861040608     -3.116636770     10.437714521
C       -7.954271608     -7.157861770     12.690338521
S       -7.618258608     -4.833340770     13.823843521
C       -4.210031608     -1.937056770      7.939813521
H       -5.937246608     -2.400500770      9.169917521
H       -5.595594608     -3.603408770      7.945620521
S       -8.677482608     -8.744242770     12.669784521
C       -8.341473608     -6.419719770     13.803290521
C       -4.981174608     -1.087750770      6.922882521
H       -3.715361608     -1.283646770      8.675481521
H       -3.397928608     -2.481267770      7.435963521
C       -9.523942608     -8.409368770     14.173844521
C       -9.241293608     -7.105865770     14.680001521
H       -4.321369608     -0.398112770      6.378320521
H       -5.482518608     -1.714339770      6.171335521
H       -5.758351608     -0.484685770      7.412042521
C      -10.397348608     -9.275336770     14.838463521
C       -9.853123608     -6.705353770     15.882740521
C      -11.011699608     -8.859243770     16.024527521
H      -10.603196608    -10.266796770     14.439241521
C      -10.720143608     -7.574791770     16.535746521
H       -9.656931608     -5.713768770     16.287377521
C      -11.932546608     -9.794301770     16.770928521
H      -11.203973608     -7.257564770     17.458756521
H      -12.730515608     -9.214884770     17.257906521
C      -11.184009608    -10.641803770     17.817906521
H      -12.434701608    -10.460943770     16.055914521
C      -12.085711608    -11.640526770     18.553816521
H      -10.358496608    -11.177081770     17.323712521
H      -10.700148608     -9.974173770     18.548006521
H      -12.897814608    -11.096314770     19.057667521
C      -11.314566608    -12.489832770     19.570748521
H      -12.580380608    -12.293935770     17.818146521
H      -11.974372608    -13.179469770     20.115309521
H      -10.813224608    -11.863242770     20.322294521
H      -10.537390608    -13.092896770     19.081585521
H       -0.032913608     -4.197351770      5.757947521
C        0.779189392     -4.741562770      5.254098521
H        0.284520392     -5.394971770      4.518428521
C        1.680891392     -3.742839770      4.518186521
C        1.550333392     -5.590868770      6.271029521
C        0.932352392     -2.895337770      3.471209521
H        2.506404392     -4.278118770      4.023994521
H        2.164752392     -3.075210770      5.248290521
H        0.890527392     -6.280506770      6.815590521
H        2.051676392     -4.964278770      7.022576521
H        2.327510392     -6.193932770      5.781868521
H        0.134384392     -2.315921770      3.958189521
C        1.853204392     -1.960281770      2.724811521
H        0.430199392     -3.561980770      2.756197521
C        2.467551392     -2.376372770      1.538744521
C        2.144756392     -0.675827770      3.236026521
C        3.340957392     -1.510404770      0.874125521
H        2.261704392     -3.367833770      1.139523521
C        3.011776392      0.193610230      2.583022521
H        1.660927392     -0.358601770      4.159038521
S        4.187418392     -1.845279770     -0.629933479
C        3.623609392     -0.206902770      1.380284521
H        3.207969392      1.185194230      2.987658521
C        4.910627392     -0.258897770     -0.609379479
C        4.523426392      0.479243230      0.503572521
C        5.810461392      0.427240230     -1.486082479
S        5.246642392      2.065622230      0.524125521
C        6.422272392      0.026741230     -2.688835479
C        6.093093392      1.730753230     -0.979940479
H        6.226090392     -0.964849770     -3.093464479
C        7.289311392      0.896168230     -3.341827479
C        6.966514392      2.596715230     -1.644548479
C        7.580848392      2.180630230     -2.830624479
H        7.773131392      0.578946230     -4.264845479
H        7.172354392      3.588177230     -1.245330479
C        8.501707392      3.115683230     -3.577017479
C        7.753167392      3.963183230     -4.623994479
H        9.299674392      2.536265230     -4.063996479
H        9.003860392      3.782325230     -2.862003479
C        8.654870392      4.961907230     -5.359904479
H        6.927654392      4.498462230     -4.129800479
H        7.269306392      3.295554230     -5.354096479
C        7.883725392      5.811213230     -6.376835479
H        9.149539392      5.615316230     -4.624235479
H        9.466972392      4.417695230     -5.863754479
H        8.543531392      6.500851230     -6.921397479
H        7.382382392      5.184623230     -7.128382479
H        7.106549392      6.414278230     -5.887675479
H       -0.445781608     -8.011266770      6.378314521
C       -1.105567608     -8.700913770      6.922888521
H       -1.606919608     -9.327497770      6.171342521
H       -1.882749608     -8.097850770      7.412040521
C       -0.334477608     -9.550252770      7.939839521
C       -1.236139608    -10.548995770      8.675781521
H        0.160223392     -8.896817770      8.675463521
H        0.477649392    -10.094411770      7.435973521
C       -0.487514608    -11.396460770      9.722736521
H       -2.061657608    -10.013653770      9.169899521
H       -1.720006608    -11.216551770      7.945615521
C       -1.408789608    -12.331320770     10.468863521
H        0.014580392    -10.729753770     10.437730521
H        0.310411392    -11.975864770      9.235682521
C       -2.022605608    -11.915507770     11.655297521
C       -1.699786608    -13.616065770      9.958041521
C       -2.896315608    -12.781321770     12.319718521
H       -1.816978608    -10.923938770     12.054369521
C       -2.567152608    -14.485330770     10.610803521
H       -1.216207608    -13.933160770      9.034857521
C       -3.178770608    -14.084918770     11.813680521
S       -3.742660608    -12.446513770     13.823857521
H       -2.763215608    -15.476984770     10.206253521
C       -4.078648608    -14.771031770     12.690358521
C       -4.465930608    -14.032864770     13.803266521
S       -4.801886608    -16.357396770     12.669771521
C       -5.365730608    -14.719016770     14.679990521
C       -5.648282608    -16.022561770     14.173877521
C       -5.977447608    -14.318546770     15.882799521
C       -6.521927608    -16.888402770     14.838345521
C       -6.844746608    -15.187848770     16.535603521
H       -5.781335608    -13.326918770     16.287380521
C       -7.135779608    -16.472575770     16.024754521
H       -6.727577608    -17.879964770     14.439260521
H       -7.328349608    -14.870741770     17.458771521
C       -8.057046608    -17.407438770     16.770888521
C       -7.308418608    -18.254903770     17.817843521
H       -8.854970608    -16.828038770     17.257948521
H       -8.559137608    -18.074151770     16.055897521
C       -8.210075608    -19.253646770     18.553789521
H       -6.482898608    -18.790250770     17.323733521
H       -6.824551608    -17.587354770     18.548014521
C       -7.438991608    -20.102990770     19.570742521
H       -8.704780608    -19.907083770     17.818169521
H       -9.022206608    -18.709495770     19.057655521
H       -8.098776608    -20.792638770     20.115317521
H       -6.937639608    -19.476405770     20.322287521
H       -6.661808608    -20.706050770     19.081589521
H       -3.748667608     -7.971769770      4.159049521
C       -3.265027608     -8.288897770      3.235907521
C       -3.556214608     -9.573539770      2.724945521
C       -2.397623608     -7.419662770      2.583159521
C       -2.942224608     -9.989453770      1.538636521
C       -4.477273608    -10.508501770      3.471206521
C       -1.786259608     -7.819925770      1.380108521
H       -2.201662608     -6.427954770      2.987641521
C       -2.068446608     -9.123665770      0.874271521
H       -3.147890608    -10.980999770      1.139530521
C       -3.728716608    -11.355993770      4.518181521
H       -5.275235608     -9.929084770      3.958193521
H       -4.979420608    -11.175149770      2.756194521
C       -0.886109608     -7.133948770      0.503601521
S       -1.222217608     -9.458415770     -0.629943479
C       -4.630419608    -12.354718770      5.254091521
H       -2.903202608    -11.891274770      4.023991521
H       -3.244852608    -10.688367770      5.248286521
C       -0.498932608     -7.872070770     -0.609372479
S       -0.162991608     -5.547525770      0.524136521
C       -3.859272608    -13.204022770      6.271023521
H       -5.125086608    -13.008133770      4.518426521
H       -5.442520608    -11.810509770      5.757947521
C        0.400810392     -7.185884770     -1.486127479
C        0.683473392     -5.882401770     -0.979921479
H       -4.519076608    -13.893661770      6.815585521
H       -3.357930608    -12.577440770      7.022577521
H       -3.082098608    -13.807095770      5.781869521
C        1.012631392     -7.586419770     -2.688863479
C        1.557066392     -5.016538770     -1.644433479
C        1.879897392     -6.717095770     -3.341682479
H        0.816469392     -8.578021770     -3.093478479
C        2.170868392     -5.432334770     -2.830878479
H        1.762717392     -4.024976770     -1.245353479
H        2.363485392     -7.034195770     -4.264860479
C        3.092220392     -4.497513770     -3.576962479
C        2.343562392     -3.650059770     -4.623907479
H        3.890128392     -5.076905770     -4.064055479
H        3.594288392     -3.830771770     -2.861981479
C        3.245199392     -2.651306770     -5.359870479
H        1.518040392     -3.114681770     -4.129831479
H        1.859694392     -4.317575770     -5.354108479
C        2.474143392     -1.801945770     -6.376831479
H        3.739920392     -1.997862770     -4.624268479
H        4.057343392     -3.195435770     -5.863739479
H        3.133919392     -1.112294770     -6.921411479
H        1.972785392     -2.428533770     -7.128370479
H        1.696956392     -1.198891770     -5.887677479
H       -0.952998608     -3.603391770      7.945615521
C       -0.469131608     -2.935835770      8.675781521
H       -1.294650608     -2.400492770      9.169899521
C        0.279493392     -3.783300770      9.722736521
C        0.432530392     -1.937092770      7.939839521
C       -0.641783608     -4.718159770     10.468862521
H        0.781588392     -3.116592770     10.437730521
H        1.077419392     -4.362703770      9.235682521
C       -0.338559608     -1.087753770      6.922888521
H        0.927231392     -1.283657770      8.675463521
H        1.244657392     -2.481250770      7.435973521
C       -1.255597608     -4.302347770     11.655297521
C       -0.932778608     -6.002904770      9.958041521
H        0.321225392     -0.398105770      6.378314521
H       -0.839911608     -1.714336770      6.171342521
H       -1.115741608     -0.484689770      7.412040521
C       -2.129307608     -5.168160770     12.319718521
H       -1.049970608     -3.310777770     12.054369521
C       -1.800144608     -6.872169770     10.610803521
H       -0.449199608     -6.320000770      9.034857521
C       -2.411763608     -6.471757770     11.813680521
S       -2.975653608     -4.833352770     13.823857521
H       -1.996208608     -7.863823770     10.206252521
C       -3.311639608     -7.157871770     12.690358521
C       -3.698922608     -6.419704770     13.803265521
S       -4.034879608     -8.744236770     12.669771521
C       -4.598721608     -7.105856770     14.679991521
C       -4.881274608     -8.409401770     14.173877521
C       -5.210440608     -6.705385770     15.882799521
C       -5.754919608     -9.275243770     14.838346521
C       -6.077737608     -7.574688770     16.535603521
H       -5.014327608     -5.713758770     16.287380521
C       -6.368773608     -8.859414770     16.024754521
H       -5.960570608    -10.266803770     14.439260521
H       -6.561342608     -7.257581770     17.458771521
C       -7.290038608     -9.794278770     16.770888521
C       -6.541411608    -10.641743770     17.817843521
H       -8.087962608     -9.214878770     17.257948521
H       -7.792129608    -10.460991770     16.055897521
C       -7.443068608    -11.640487770     18.553789521
H       -5.715891608    -11.177091770     17.323733521
H       -6.057544608     -9.974194770     18.548014521
C       -6.671983608    -12.489830770     19.570742521
H       -7.937773608    -12.293923770     17.818169521
H       -8.255198608    -11.096333770     19.057655521
H       -7.331768608    -13.179477770     20.115317521
H       -6.170631608    -11.863245770     20.322287521
H       -5.894801608    -13.092891770     19.081589521
H       -1.369187608      3.335046230      4.023991521
C       -2.194701608      3.870327230      4.518181521
H       -1.710837608      4.537952230      5.248286521
C       -2.943257608      4.717819230      3.471206521
C       -3.096404608      2.871602230      5.254091521
C       -2.022199608      5.652781230      2.724945521
H       -3.741220608      5.297236230      3.958193521
H       -3.445405608      4.051171230      2.756194521
C       -2.325257608      2.022298230      6.271023521
H       -3.591071608      2.218187230      4.518426521
H       -3.908504608      3.415811230      5.757947521
C       -1.408208608      5.236867230      1.538636521
C       -1.731011608      6.937423230      3.235907521
H       -2.985060608      1.332659230      6.815585521
H       -1.823915608      2.648880230      7.022577521
H       -1.548083608      1.419225230      5.781869521
C       -0.534431608      6.102655230      0.874271521
H       -1.613875608      4.245321230      1.139530521
C       -0.863608608      7.806658230      2.583159521
H       -2.214652608      7.254551230      4.159049521
S        0.311798392      5.767905230     -0.629943479
C       -0.252244608      7.406395230      1.380108521
H       -0.667646608      8.798366230      2.987641521
C        1.035082392      7.354250230     -0.609372479
C        0.647905392      8.092372230      0.503601521
C        1.934825392      8.040436230     -1.486127479
S        1.371023392      9.678795230      0.524136521
C        2.546646392      7.639901230     -2.688863479
C        2.217488392      9.343919230     -0.979921479
C        3.413913392      8.509224230     -3.341682479
H        2.350484392      6.648299230     -3.093478479
C        3.091081392     10.209782230     -1.644433479
C        3.704883392      9.793986230     -2.830878479
H        3.897500392      8.192125230     -4.264860479
H        3.296733392     11.201344230     -1.245353479
C        4.626235392     10.728807230     -3.576962479
C        3.877577392     11.576261230     -4.623907479
H        5.424143392     10.149415230     -4.064055479
H        5.128303392     11.395549230     -2.861981479
C        4.779214392     12.575014230     -5.359870479
H        3.052055392     12.111639230     -4.129831479
H        3.393710392     10.908745230     -5.354108479
C        4.008158392     13.424375230     -6.376831479
H        5.273936392     13.228458230     -4.624268479
H        5.591358392     12.030885230     -5.863739479
H        4.667934392     14.114026230     -6.921411479
H        3.506801392     12.797787230     -7.128370479
H        3.230971392     14.027429230     -5.887677479
H        5.240659392      6.540345230     -9.140665479
C        5.724263392      6.223238230    -10.063832479
C        5.433227392      4.938511230    -10.574682479
C        6.591561392      7.092540230    -10.716636479
C        6.047082392      4.522683230    -11.761089479
C        4.511963392      4.003648230     -9.828547479
C        7.203279392      6.692070230    -11.919444479
H        6.787673392      8.084168230    -10.312054479
C        6.920726392      5.388525230    -12.425559479
H        5.841431392      3.531123230    -12.160175479
C        5.260590392      3.156183230     -8.781592479
H        3.714038392      4.583048230     -9.341486479
H        4.009871392      3.336935230    -10.543538479
C        8.103078392      7.378222230    -12.796170479
S        7.767122392      5.053690230    -13.929664479
C        4.358933392      2.157439230     -8.045646479
H        6.086110392      2.620835230     -9.275703479
H        5.744457392      3.823732230     -8.051421479
C        8.490361392      6.640055230    -13.909077479
S        8.826348392      8.964574230    -12.775578479
C        5.130017392      1.308096230     -7.028693479
H        3.864228392      1.504003230     -8.781268479
H        3.546802392      2.701592230     -7.541780479
C        9.390238392      7.326169230    -14.785755479
C        9.672694392      8.629766230    -14.279717479
H        4.470232392      0.618449230     -6.484119479
H        5.631369392      1.934681230     -6.277149479
H        5.907200392      0.705035230     -7.517847479
C       10.001857392      6.925756230    -15.988632479
C       10.546404392      9.495579230    -14.944138479
C       10.869222392      7.795022230    -16.641394479
H        9.805793392      5.934103230    -16.393184479
C       11.160218392      9.079767230    -16.130572479
H       10.752030392     10.487149230    -14.545066479
H       11.352801392      7.477926230    -17.564578479
C       12.081494392     10.014626230    -16.876698479
C       11.332869392     10.862091230    -17.923653479
H       12.583589392     10.681334230    -16.161706479
H       12.879420392      9.435223230    -17.363753479
C       12.234531392     11.860834230    -18.659596479
H       10.507351392     11.397434230    -17.429536479
H       10.849003392     10.194535230    -18.653821479
C       11.463441392     12.710173230    -19.676547479
H       12.729232392     12.514269230    -17.923972479
H       13.046659392     11.316676230    -19.163462479
H       12.123227392     13.399821230    -20.221122479
H       10.962089392     12.083589230    -20.428094479
H       10.686259392     13.313237230    -19.187396479
H        5.237240392      8.231609230     -6.484119479
C        5.897025392      8.921256230     -7.028693479
H        6.398377392      9.547842230     -6.277149479
H        6.674208392      8.318196230     -7.517847479
C        5.125941392      9.770599230     -8.045646479
C        6.027597392     10.769344230     -8.781592479
H        4.631236392      9.117164230     -8.781267479
H        4.313810392     10.314753230     -7.541780479
C        5.278970392     11.616809230     -9.828547479
H        6.853117392     10.233996230     -9.275702479
H        6.511465392     11.436893230     -8.051421479
C        6.200237392     12.551671230    -10.574681479
H        4.481045392     12.196209230     -9.341486479
H        4.776879392     10.950095230    -10.543538479
C        6.814088392     12.135844230    -11.761090479
C        6.491270392     13.836399230    -10.063832479
C        7.687734392     13.001685230    -12.425558479
H        6.608438392     11.144283230    -12.160175479
C        7.358569392     14.705701230    -10.716636479
H        6.007667392     14.153506230     -9.140665479
S        8.534129392     12.666850230    -13.929664479
C        7.970286392     14.305231230    -11.919445479
H        7.554681392     15.697329230    -10.312054479
C        9.257368392     14.253216230    -13.909077479
C        8.870086392     14.991383230    -12.796169479
C       10.157246392     14.939329230    -14.785755479
S        9.593355392     16.577734230    -12.775578479
C       10.768864392     14.538917230    -15.988632479
C       10.439701392     16.242925230    -14.279717479
H       10.572801392     13.547263230    -16.393184479
C       11.636229392     15.408182230    -16.641394479
C       11.313411392     17.108740230    -14.944138479
C       11.927226392     16.692926230    -16.130572479
H       12.119809392     15.091087230    -17.564578479
H       11.519038392     18.100309230    -14.545066479
C       12.848502392     17.627786230    -16.876698479
C       12.099877392     18.475252230    -17.923655479
H       13.350597392     18.294494230    -16.161706479
H       13.646428392     17.048383230    -17.363753479
C       13.001539392     19.473995230    -18.659596479
H       11.274359392     19.010593230    -17.429536479
H       11.616010392     17.807695230    -18.653821479
C       12.230449392     20.323333230    -19.676547479
H       13.496240392     20.127430230    -17.923972479
H       13.813666392     18.929836230    -19.163462479
H       12.890235392     21.012981230    -20.221122479
H       11.729097392     19.696750230    -20.428094479
H       11.453267392     20.926397230    -19.187396479
H        1.101853392      3.823753230     -8.051428479
C        0.617992392      3.156123230     -8.781530479
H        1.443505392      2.620845230     -9.275723479
C       -0.130545608      4.003625230     -9.828507479
C       -0.283710608      2.157400230     -8.045619479
H       -0.928513608      4.583042230     -9.341529479
C        0.790302392      4.938683230    -10.574908479
H       -0.632699608      3.336983230    -10.543520479
H       -1.095812608      2.701612230     -7.541769479
C        0.487434392      1.308094230     -7.028688479
H       -0.778378608      1.503991230     -8.781289479
C        1.404652392      4.522590230    -11.760972479
C        1.081858392      6.223135230    -10.063690479
H       -0.172371608      0.618457230     -6.484127479
H        0.988777392      1.934684230     -6.277141479
H        1.264610392      0.705030230     -7.517849479
C        2.278059392      5.388558230    -12.425591479
H        1.198805392      3.531130230    -12.160195479
C        1.948878392      7.092573230    -10.716695479
H        0.598028392      6.540362230     -9.140679479
S        3.124518392      5.053684230    -13.929651479
C        2.560708392      6.692061230    -11.919434479
H        2.145070392      8.084158230    -10.312059479
C        3.847729392      6.640065230    -13.909097479
C        3.460528392      7.378207230    -12.796145479
C        4.747560392      7.326205230    -14.785802479
S        4.183742392      8.964586230    -12.775592479
C        5.359373392      6.925703230    -15.988553479
C        5.030195392      8.629716230    -14.279656479
C        6.226412392      7.795131230    -16.641543479
H        5.163191392      5.934113230    -16.393182479
C        5.903615392      9.495678230    -14.944265479
C        6.517946392      9.079594230    -16.130343479
H        6.710231392      7.477910230    -17.564563479
H        6.109455392     10.487141230    -14.545048479
C        7.438808392     10.014646230    -16.876735479
C        6.690268392     10.862146230    -17.923711479
H        8.236775392      9.435229230    -17.363713479
H        7.940961392     10.681290230    -16.161721479
C        7.591970392     11.860870230    -18.659621479
H        5.864755392     11.397426230    -17.429519479
H        6.206407392     10.194518230    -18.653815479
C        6.820826392     12.710176230    -19.676553479
H        8.086639392     12.514280230    -17.923955479
H        8.404073392     11.316659230    -19.163472479
H        7.480631392     13.399814230    -20.221116479
H        6.319483392     12.083587230    -20.428099479
H        6.043650392     13.313241230    -19.187392479
H        0.594636392      8.231617230     -6.484127479
C        1.254442392      8.921254230     -7.028688479
H        1.755784392      9.547845230     -6.277141479
H        2.031618392      8.318191230     -7.517849479
C        0.483297392      9.770561230     -8.045619479
H       -0.328805608     10.314772230     -7.541770479
C        1.384999392     10.769284230     -8.781531479
H       -0.011371608      9.117152230     -8.781289479
C        0.636461392     11.616785230     -9.828508479
H        2.210513392     10.234005230     -9.275723479
H        1.868861392     11.436913230     -8.051428479
H       -0.161506608     12.196202230     -9.341528479
C        1.557312392     12.551842230    -10.574906479
H        0.134307392     10.950143230    -10.543520479
C        2.171659392     12.135751230    -11.760973479
C        1.848865392     13.836296230    -10.063691479
C        3.045066392     13.001719230    -12.425592479
H        1.965813392     11.144290230    -12.160194479
C        2.715884392     14.705734230    -10.716695479
H        1.365035392     14.153522230     -9.140679479
S        3.891526392     12.666844230    -13.929651479
C        3.327717392     14.305221230    -11.919433479
H        2.912078392     15.697318230    -10.312059479
C        4.614736392     14.253226230    -13.909097479
C        4.227535392     14.991367230    -12.796145479
C        5.514569392     14.939364230    -14.785800479
S        4.950750392     16.577745230    -12.775592479
C        6.126380392     14.538864230    -15.988553479
C        5.797202392     16.242878230    -14.279658479
H        5.930199392     13.547274230    -16.393182479
C        6.993419392     15.408292230    -16.641545479
C        6.670622392     17.108839230    -14.944266479
C        7.284957392     16.692754230    -16.130341479
H        7.477239392     15.091070230    -17.564563479
H        6.876462392     18.100301230    -14.545048479
C        8.205815392     17.627807230    -16.876735479
C        7.457275392     18.475307230    -17.923713479
H        9.003782392     17.048389230    -17.363713479
H        8.707968392     18.294449230    -16.161721479
C        8.358978392     19.474031230    -18.659621479
H        6.631763392     19.010586230    -17.429519479
H        6.973414392     17.807678230    -18.653813479
C        7.587833392     20.323337230    -19.676553479
H        8.853647392     20.127439230    -17.923953479
H        9.171081392     18.929819230    -19.163472479
H        8.247639392     21.012975230    -20.221116479
H        7.086490392     19.696747230    -20.428099479
H        6.810657392     20.926401230    -19.187392479
H        3.028712392      4.245327230      1.139523521
C        3.234559392      5.236787230      1.538745521
C        2.620209392      5.652880230      2.724809521
C        4.107966392      6.102755230      0.874126521
C        2.911765392      6.937332230      3.236027521
C        1.699361392      4.717822230      3.471210521
S        4.954425392      5.767881230     -0.629933479
C        4.390615392      7.406258230      1.380283521
C        3.778784392      7.806770230      2.583022521
H        2.427934392      7.254559230      4.159038521
H        0.901393392      5.297239230      3.958188521
C        2.447899392      3.870320230      4.518187521
H        1.197206392      4.051180230      2.756197521
C        5.677636392      7.354262230     -0.609379479
C        5.290435392      8.092404230      0.503572521
H        3.974977392      8.798355230      2.987658521
C        1.546196392      2.871597230      5.254098521
H        3.273412392      3.335042230      4.023994521
H        2.931760392      4.537950230      5.248289521
C        6.577467392      8.040402230     -1.486084479
S        6.013649392      9.678783230      0.524125521
H        0.734093392      3.415809230      5.757948521
C        2.317341392      2.022291230      6.271029521
H        1.051528392      2.218188230      4.518428521
C        7.189280392      7.639900230     -2.688835479
C        6.860102392      9.343913230     -0.979938479
H        1.657535392      1.332654230      6.815590521
H        2.818684392      2.648881230      7.022576521
H        3.094517392      1.419227230      5.781868521
C        8.056319392      8.509328230     -3.341826479
H        6.993098392      6.648310230     -3.093464479
C        7.733522392     10.209875230     -1.644547479
C        8.347853392      9.793791230     -2.830625479
H        8.540138392      8.192107230     -4.264845479
H        7.939361392     11.201338230     -1.245330479
C        9.268715392     10.728843230     -3.577016479
C        8.520174392     11.576343230     -4.623993479
H       10.066682392     10.149426230     -4.063996479
H        9.770868392     11.395487230     -2.862003479
H        7.694662392     12.111623230     -4.129800479
H        8.036313392     10.908715230     -5.354097479
C        9.525832244     12.534273580     -5.289291705
H       10.354185034     12.775502963     -4.613459999
H        9.956829955     12.093843292     -6.195586181
H        9.048190826     13.478085726     -5.575972678


