24
mol.init.xyz
     C  -0.800021   2.407117  -0.865697
     C   0.782917  -0.806721   0.421371
     C  -0.800680   2.795731   0.424325
     C  -1.643106   1.404536  -1.333143
     H  -0.098084   2.834399  -1.547672
     C   0.756070  -1.292407  -0.896231
     C   1.762158  -1.400957   1.315589
     H   0.175522  -0.023531   0.765044
     C  -1.712745   2.278996   1.353432
     H  -0.146969   3.659018   0.767433
     C  -2.567222   0.829171  -0.415324
     H  -1.625042   1.064076  -2.387622
     C   1.694389  -2.244711  -1.323548
     H   0.058188  -0.778980  -1.558856
     C   2.568954  -2.423501   0.926651
     H   1.743826  -1.044606   2.350276
     C  -2.568963   1.204053   0.911929
     H  -1.750439   2.579793   2.331049
     H  -3.270813   0.027422  -0.789258
     C   2.580656  -2.809985  -0.417516
     H   1.603243  -2.537627  -2.359778
     H   3.300186  -2.858110   1.562439
     H  -3.267592   0.745774   1.559428
     H   3.225570  -3.608950  -0.794319
