1320
shell.xyz
     C -10.851203  -4.902194  -3.851536
     C -10.886604  -4.399511  -5.132650
     C -11.718794  -5.878858  -3.376564
     H -10.147342  -4.414000  -3.105916
     C -11.811661  -5.029500  -6.046865
     H -10.213141  -3.617841  -5.496246
     C -12.591233  -6.439567  -4.232525
     H -11.715317  -6.192297  -2.337070
     C -12.662957  -6.038282  -5.604056
     H -11.829954  -4.694340  -7.063859
     H -13.313299  -7.243076  -3.920477
     H -13.377389  -6.452849  -6.298663
     C  -9.291312  -1.258719  -3.788755
     C  -9.240241  -0.772546  -5.077291
     C  -8.454361  -2.235166  -3.360394
     H -10.010432  -0.796005  -3.092897
     C  -8.350592  -1.411615  -6.050976
     H  -9.959899  -0.042272  -5.466398
     C  -7.558423  -2.836977  -4.269681
     H  -8.478221  -2.560570  -2.334944
     C  -7.459638  -2.437764  -5.599964
     H  -8.360659  -1.035831  -7.090978
     H  -6.882849  -3.572493  -3.878599
     H  -6.796700  -2.817953  -6.278034
     C  -7.525167  -4.862545  -0.865697
     C  -8.368252  -5.865126  -1.333143
     H  -6.823230  -4.435263  -1.547672
     C  -7.525826  -4.473931   0.424325
     C  -9.292368  -6.440491  -0.415324
     H  -8.350188  -6.205586  -2.387622
     C  -8.437891  -4.990666   1.353432
     H  -6.872115  -3.610644   0.767433
     H  -9.995959  -7.242240  -0.789258
     C  -9.294109  -6.065609   0.911929
     H  -8.475585  -4.689869   2.331049
     H  -9.992738  -6.523888   1.559428
     C -12.694222  -1.292407  -0.896231
     C -11.755903  -2.244711  -1.323548
     H -13.392104  -0.778980  -1.558856
     C -12.667375  -0.806721   0.421371
     C -10.869636  -2.809985  -0.417516
     H -11.847049  -2.537627  -2.359778
     C -11.688134  -1.400957   1.315589
     H -13.274770  -0.023531   0.765044
     H -10.224722  -3.608950  -0.794319
     C -10.881338  -2.423501   0.926651
     H -11.706466  -1.044606   2.350276
     H -10.150106  -2.858110   1.562439
     H  -6.872115  -3.610644  -8.639242
     C  -7.525826  -4.473931  -8.982350
     C  -7.525167  -4.862545 -10.272372
     C  -8.437891  -4.990666  -8.053243
     C  -8.368252  -5.865126 -10.739818
     H  -6.823230  -4.435263 -10.954347
     C  -9.294109  -6.065609  -8.494746
     H  -8.475585  -4.689869  -7.075626
     C  -9.292368  -6.440491  -9.821999
     H  -8.350188  -6.205586 -11.794297
     H  -9.992738  -6.523888  -7.847247
     H  -9.995959  -7.242240 -10.195933
     C  -9.291312  -1.258719   5.617920
     C  -9.240241  -0.772546   4.329384
     C  -8.454361  -2.235166   6.046281
     H -10.010432  -0.796005   6.313778
     C  -8.350592  -1.411615   3.355699
     H  -9.959899  -0.042272   3.940277
     C  -7.558423  -2.836977   5.136994
     H  -8.478221  -2.560570   7.071731
     C  -7.459638  -2.437764   3.806711
     H  -8.360659  -1.035831   2.315697
     H  -6.882849  -3.572493   5.528076
     H  -6.796700  -2.817953   3.128641
     C -10.886604  -4.399511   4.274025
     C -10.851203  -4.902194   5.555139
     C -11.811661  -5.029500   3.359810
     H -10.213141  -3.617841   3.910429
     C -11.718794  -5.878858   6.030111
     H -10.147342  -4.414000   6.300759
     C -12.662957  -6.038282   3.802619
     H -11.829954  -4.694340   2.342816
     C -12.591233  -6.439567   5.174150
     H -11.715317  -6.192297   7.069605
     H -13.377389  -6.452849   3.108012
     H -13.313299  -7.243076   5.486198
     C  -7.525167  -4.862545   8.540978
     C  -8.368252  -5.865126   8.073532
     H  -6.823230  -4.435263   7.859003
     C  -7.525826  -4.473931   9.831000
     C  -9.292368  -6.440491   8.991351
     H  -8.350188  -6.205586   7.019053
     C  -8.437891  -4.990666  10.760107
     H  -6.872115  -3.610644  10.174108
     H  -9.995959  -7.242240   8.617417
     C  -9.294109  -6.065609  10.318604
     H  -8.475585  -4.689869  11.737724
     H  -9.992738  -6.523888  10.966103
     C  -7.525167   2.407117 -10.272372
     C  -8.368252   1.404536 -10.739818
     H  -6.823230   2.834399 -10.954347
     C  -7.525826   2.795731  -8.982350
     C  -9.292368   0.829171  -9.821999
     H  -8.350188   1.064076 -11.794297
     C  -8.437891   2.278996  -8.053243
     H  -6.872115   3.659018  -8.639242
     H  -9.995959   0.027422 -10.195933
     C  -9.294109   1.204053  -8.494746
     H  -8.475585   2.579793  -7.075626
     H  -9.992738   0.745774  -7.847247
     C -10.851203   2.367468  -3.851536
     C -10.886604   2.870151  -5.132650
     C -11.718794   1.390804  -3.376564
     H -10.147342   2.855662  -3.105916
     C -11.811661   2.240162  -6.046865
     H -10.213141   3.651821  -5.496246
     C -12.591233   0.830095  -4.232525
     H -11.715317   1.077365  -2.337070
     C -12.662957   1.231380  -5.604056
     H -11.829954   2.575322  -7.063859
     H -13.313299   0.026586  -3.920477
     H -13.377389   0.816813  -6.298663
     C  -9.291312   6.010943  -3.788755
     C  -9.240241   6.497116  -5.077291
     C  -8.454361   5.034496  -3.360394
     H -10.010432   6.473657  -3.092897
     C  -8.350592   5.858047  -6.050976
     H  -9.959899   7.227390  -5.466398
     C  -7.558423   4.432685  -4.269681
     H  -8.478221   4.709092  -2.334944
     C  -7.459638   4.831898  -5.599964
     H  -8.360659   6.233831  -7.090978
     H  -6.882849   3.697169  -3.878599
     H  -6.796700   4.451709  -6.278034
     C  -7.525167   2.407117  -0.865697
     C  -8.368252   1.404536  -1.333143
     H  -6.823230   2.834399  -1.547672
     C  -7.525826   2.795731   0.424325
     C  -9.292368   0.829171  -0.415324
     H  -8.350188   1.064076  -2.387622
     C  -8.437891   2.278996   1.353432
     H  -6.872115   3.659018   0.767433
     H  -9.995959   0.027422  -0.789258
     C  -9.294109   1.204053   0.911929
     H  -8.475585   2.579793   2.331049
     H  -9.992738   0.745774   1.559428
     C -11.755903   5.024951  -1.323548
     C -12.694222   5.977255  -0.896231
     C -10.869636   4.459677  -0.417516
     H -11.847049   4.732035  -2.359778
     H -13.392104   6.490682  -1.558856
     C -12.667375   6.462941   0.421371
     H -10.224722   3.660712  -0.794319
     C -10.881338   4.846161   0.926651
     C -11.688134   5.868705   1.315589
     H -13.274770   7.246131   0.765044
     H -10.150106   4.411552   1.562439
     H -11.706466   6.225056   2.350276
     C -12.662957   1.231380   3.802619
     C -12.591233   0.830095   5.174150
     C -11.811661   2.240162   3.359810
     H -13.377389   0.816813   3.108012
     C -11.718794   1.390804   6.030111
     H -13.313299   0.026586   5.486198
     C -10.886604   2.870151   4.274025
     H -11.829954   2.575322   2.342816
     C -10.851203   2.367468   5.555139
     H -11.715317   1.077365   7.069605
     H -10.213141   3.651821   3.910429
     H -10.147342   2.855662   6.300759
     C  -9.291312   6.010943   5.617920
     C  -9.240241   6.497116   4.329384
     C  -8.454361   5.034496   6.046281
     H -10.010432   6.473657   6.313778
     C  -8.350592   5.858047   3.355699
     H  -9.959899   7.227390   3.940277
     C  -7.558423   4.432685   5.136994
     H  -8.478221   4.709092   7.071731
     C  -7.459638   4.831898   3.806711
     H  -8.360659   6.233831   2.315697
     H  -6.882849   3.697169   5.528076
     H  -6.796700   4.451709   3.128641
     C  -7.525167   2.407117   8.540978
     C  -8.368252   1.404536   8.073532
     H  -6.823230   2.834399   7.859003
     C  -7.525826   2.795731   9.831000
     C  -9.292368   0.829171   8.991351
     H  -8.350188   1.064076   7.019053
     C  -8.437891   2.278996  10.760107
     H  -6.872115   3.659018  10.174108
     H  -9.995959   0.027422   8.617417
     C  -9.294109   1.204053  10.318604
     H  -8.475585   2.579793  11.737724
     H  -9.992738   0.745774  10.966103
     C  -7.525167   9.676779  -0.865697
     C  -8.368252   8.674198  -1.333143
     H  -6.823230  10.104061  -1.547672
     C  -7.525826  10.065393   0.424325
     C  -9.292368   8.098833  -0.415324
     H  -8.350188   8.333738  -2.387622
     C  -8.437891   9.548658   1.353432
     H  -6.872115  10.928680   0.767433
     H  -9.995959   7.297084  -0.789258
     C  -9.294109   8.473715   0.911929
     H  -8.475585   9.849455   2.331049
     H  -9.992738   8.015436   1.559428
     H  -8.350188   8.333738   7.019053
     C  -8.368252   8.674198   8.073532
     C  -7.525167   9.676779   8.540978
     C  -9.292368   8.098833   8.991351
     H  -6.823230  10.104061   7.859003
     C  -7.525826  10.065393   9.831000
     H  -9.995959   7.297084   8.617417
     C  -9.294109   8.473715  10.318604
     C  -8.437891   9.548658  10.760107
     H  -6.872115  10.928680  10.174108
     H  -9.992738   8.015436  10.966103
     H  -8.475585   9.849455  11.737724
     C  -2.566166  -8.528381  -3.788755
     C  -2.515095  -8.042208  -5.077291
     C  -1.729215  -9.504828  -3.360394
     H  -3.285286  -8.065667  -3.092897
     C  -1.625446  -8.681277  -6.050976
     H  -3.234753  -7.311934  -5.466398
     C  -0.833277 -10.106639  -4.269681
     H  -1.753075  -9.830232  -2.334944
     C  -0.734492  -9.707426  -5.599964
     H  -1.635513  -8.305493  -7.090978
     H  -0.157703 -10.842155  -3.878599
     H  -0.071554 -10.087615  -6.278034
     C  -0.800021 -12.132207  -0.865697
     C  -1.643106 -13.134788  -1.333143
     H  -0.098084 -11.704925  -1.547672
     C  -0.800680 -11.743593   0.424325
     C  -2.567222 -13.710153  -0.415324
     H  -1.625042 -13.475248  -2.387622
     C  -1.712745 -12.260328   1.353432
     H  -0.146969 -10.880306   0.767433
     H  -3.270813 -14.511902  -0.789258
     C  -2.568963 -13.335271   0.911929
     H  -1.750439 -11.959531   2.331049
     H  -3.267592 -13.793550   1.559428
     C  -5.969076  -8.562069  -0.896231
     C  -5.030757  -9.514373  -1.323548
     H  -6.666958  -8.048642  -1.558856
     C  -5.942229  -8.076383   0.421371
     C  -4.144490 -10.079647  -0.417516
     H  -5.121903  -9.807289  -2.359778
     C  -4.962988  -8.670619   1.315589
     H  -6.549624  -7.293193   0.765044
     H  -3.499576 -10.878612  -0.794319
     C  -4.156192  -9.693163   0.926651
     H  -4.981320  -8.314268   2.350276
     H  -3.424960 -10.127772   1.562439
     H  -4.981320  -8.314268  -7.056399
     C  -4.962988  -8.670619  -8.091086
     C  -5.942229  -8.076383  -8.985304
     C  -4.156192  -9.693163  -8.480024
     C  -5.969076  -8.562069 -10.302906
     H  -6.549624  -7.293193  -8.641631
     C  -4.144490 -10.079647  -9.824191
     H  -3.424960 -10.127772  -7.844236
     C  -5.030757  -9.514373 -10.730223
     H  -6.666958  -8.048642 -10.965531
     H  -3.499576 -10.878612 -10.200994
     H  -5.121903  -9.807289 -11.766453
     C  -2.566166  -8.528381   5.617920
     C  -2.515095  -8.042208   4.329384
     C  -1.729215  -9.504828   6.046281
     H  -3.285286  -8.065667   6.313778
     C  -1.625446  -8.681277   3.355699
     H  -3.234753  -7.311934   3.940277
     C  -0.833277 -10.106639   5.136994
     H  -1.753075  -9.830232   7.071731
     C  -0.734492  -9.707426   3.806711
     H  -1.635513  -8.305493   2.315697
     H  -0.157703 -10.842155   5.528076
     H  -0.071554 -10.087615   3.128641
     H  -1.753075  -2.560570 -11.741619
     C  -1.729215  -2.235166 -12.767069
     C  -2.566166  -1.258719 -13.195430
     C  -0.833277  -2.836977 -13.676356
     C  -2.515095  -0.772546 -14.483966
     H  -3.285286  -0.796005 -12.499572
     C  -0.734492  -2.437764 -15.006639
     H  -0.157703  -3.572493 -13.285274
     C  -1.625446  -1.411615 -15.457651
     H  -3.234753  -0.042272 -14.873073
     H  -0.071554  -2.817953 -15.684709
     H  -1.635513  -1.035831 -16.497653
     C  -0.800021  -4.862545 -10.272372
     C  -1.643106  -5.865126 -10.739818
     H  -0.098084  -4.435263 -10.954347
     C  -0.800680  -4.473931  -8.982350
     C  -2.567222  -6.440491  -9.821999
     H  -1.625042  -6.205586 -11.794297
     C  -1.712745  -4.990666  -8.053243
     H  -0.146969  -3.610644  -8.639242
     H  -3.270813  -7.242240 -10.195933
     C  -2.568963  -6.065609  -8.494746
     H  -1.750439  -4.689869  -7.075626
     H  -3.267592  -6.523888  -7.847247
     C  -5.969076  -1.292407 -10.302906
     C  -5.030757  -2.244711 -10.730223
     H  -6.666958  -0.778980 -10.965531
     C  -5.942229  -0.806721  -8.985304
     C  -4.144490  -2.809985  -9.824191
     H  -5.121903  -2.537627 -11.766453
     C  -4.962988  -1.400957  -8.091086
     H  -6.549624  -0.023531  -8.641631
     H  -3.499576  -3.608950 -10.200994
     C  -4.156192  -2.423501  -8.480024
     H  -4.981320  -1.044606  -7.056399
     H  -3.424960  -2.858110  -7.844236
     C  -5.937811  -6.038282  -5.604056
     C  -5.866087  -6.439567  -4.232525
     C  -5.086515  -5.029500  -6.046865
     H  -6.652243  -6.452849  -6.298663
     C  -4.993648  -5.878858  -3.376564
     H  -6.588153  -7.243076  -3.920477
     C  -4.161458  -4.399511  -5.132650
     H  -5.104808  -4.694340  -7.063859
     C  -4.126057  -4.902194  -3.851536
     H  -4.990171  -6.192297  -2.337070
     H  -3.487995  -3.617841  -5.496246
     H  -3.422196  -4.414000  -3.105916
     C  -2.566166  -1.258719  -3.788755
     C  -2.515095  -0.772546  -5.077291
     C  -1.729215  -2.235166  -3.360394
     H  -3.285286  -0.796005  -3.092897
     C  -1.625446  -1.411615  -6.050976
     H  -3.234753  -0.042272  -5.466398
     C  -0.833277  -2.836977  -4.269681
     H  -1.753075  -2.560570  -2.334944
     C  -0.734492  -2.437764  -5.599964
     H  -1.635513  -1.035831  -7.090978
     H  -0.157703  -3.572493  -3.878599
     H  -0.071554  -2.817953  -6.278034
     C  -0.800021  -4.862545  -0.865697
     C  -1.643106  -5.865126  -1.333143
     H  -0.098084  -4.435263  -1.547672
     C  -0.800680  -4.473931   0.424325
     C  -2.567222  -6.440491  -0.415324
     H  -1.625042  -6.205586  -2.387622
     C  -1.712745  -4.990666   1.353432
     H  -0.146969  -3.610644   0.767433
     H  -3.270813  -7.242240  -0.789258
     C  -2.568963  -6.065609   0.911929
     H  -1.750439  -4.689869   2.331049
     H  -3.267592  -6.523888   1.559428
     C  -5.969076  -1.292407  -0.896231
     C  -5.030757  -2.244711  -1.323548
     H  -6.666958  -0.778980  -1.558856
     C  -5.942229  -0.806721   0.421371
     C  -4.144490  -2.809985  -0.417516
     H  -5.121903  -2.537627  -2.359778
     C  -4.962988  -1.400957   1.315589
     H  -6.549624  -0.023531   0.765044
     H  -3.499576  -3.608950  -0.794319
     C  -4.156192  -2.423501   0.926651
     H  -4.981320  -1.044606   2.350276
     H  -3.424960  -2.858110   1.562439
     C  -5.937811  -6.038282   3.802619
     C  -5.866087  -6.439567   5.174150
     C  -5.086515  -5.029500   3.359810
     H  -6.652243  -6.452849   3.108012
     C  -4.993648  -5.878858   6.030111
     H  -6.588153  -7.243076   5.486198
     C  -4.161458  -4.399511   4.274025
     H  -5.104808  -4.694340   2.342816
     C  -4.126057  -4.902194   5.555139
     H  -4.990171  -6.192297   7.069605
     H  -3.487995  -3.617841   3.910429
     H  -3.422196  -4.414000   6.300759
     C  -2.566166  -1.258719   5.617920
     C  -2.515095  -0.772546   4.329384
     C  -1.729215  -2.235166   6.046281
     H  -3.285286  -0.796005   6.313778
     C  -1.625446  -1.411615   3.355699
     H  -3.234753  -0.042272   3.940277
     C  -0.833277  -2.836977   5.136994
     H  -1.753075  -2.560570   7.071731
     C  -0.734492  -2.437764   3.806711
     H  -1.635513  -1.035831   2.315697
     H  -0.157703  -3.572493   5.528076
     H  -0.071554  -2.817953   3.128641
     C  -0.800021  -4.862545   8.540978
     C  -1.643106  -5.865126   8.073532
     H  -0.098084  -4.435263   7.859003
     C  -0.800680  -4.473931   9.831000
     C  -2.567222  -6.440491   8.991351
     H  -1.625042  -6.205586   7.019053
     C  -1.712745  -4.990666  10.760107
     H  -0.146969  -3.610644  10.174108
     H  -3.270813  -7.242240   8.617417
     C  -2.568963  -6.065609  10.318604
     H  -1.750439  -4.689869  11.737724
     H  -3.267592  -6.523888  10.966103
     C  -5.969076  -1.292407   8.510444
     C  -5.030757  -2.244711   8.083127
     H  -6.666958  -0.778980   7.847819
     C  -5.942229  -0.806721   9.828046
     C  -4.144490  -2.809985   8.989159
     H  -5.121903  -2.537627   7.046897
     C  -4.962988  -1.400957  10.722264
     H  -6.549624  -0.023531  10.171719
     H  -3.499576  -3.608950   8.612356
     C  -4.156192  -2.423501  10.333326
     H  -4.981320  -1.044606  11.756951
     H  -3.424960  -2.858110  10.969114
     H  -1.635513  -1.035831  11.722372
     C  -1.625446  -1.411615  12.762374
     C  -0.734492  -2.437764  13.213386
     C  -2.515095  -0.772546  13.736059
     C  -0.833277  -2.836977  14.543669
     H  -0.071554  -2.817953  12.535316
     C  -2.566166  -1.258719  15.024595
     H  -3.234753  -0.042272  13.346952
     C  -1.729215  -2.235166  15.452956
     H  -0.157703  -3.572493  14.934751
     H  -3.285286  -0.796005  15.720453
     H  -1.753075  -2.560570  16.478406
     H  -4.990171   1.077365 -11.743745
     C  -4.993648   1.390804 -12.783239
     C  -4.126057   2.367468 -13.258211
     C  -5.866087   0.830095 -13.639200
     C  -4.161458   2.870151 -14.539325
     H  -3.422196   2.855662 -12.512591
     C  -5.937811   1.231380 -15.010731
     H  -6.588153   0.026586 -13.327152
     C  -5.086515   2.240162 -15.453540
     H  -3.487995   3.651821 -14.902921
     H  -6.652243   0.816813 -15.705338
     H  -5.104808   2.575322 -16.470534
     C  -0.800021   2.407117 -10.272372
     C  -1.643106   1.404536 -10.739818
     H  -0.098084   2.834399 -10.954347
     C  -0.800680   2.795731  -8.982350
     C  -2.567222   0.829171  -9.821999
     H  -1.625042   1.064076 -11.794297
     C  -1.712745   2.278996  -8.053243
     H  -0.146969   3.659018  -8.639242
     H  -3.270813   0.027422 -10.195933
     C  -2.568963   1.204053  -8.494746
     H  -1.750439   2.579793  -7.075626
     H  -3.267592   0.745774  -7.847247
     C  -5.030757   5.024951 -10.730223
     C  -5.969076   5.977255 -10.302906
     C  -4.144490   4.459677  -9.824191
     H  -5.121903   4.732035 -11.766453
     H  -6.666958   6.490682 -10.965531
     C  -5.942229   6.462941  -8.985304
     H  -3.499576   3.660712 -10.200994
     C  -4.156192   4.846161  -8.480024
     C  -4.962988   5.868705  -8.091086
     H  -6.549624   7.246131  -8.641631
     H  -3.424960   4.411552  -7.844236
     H  -4.981320   6.225056  -7.056399
     C  -5.937811   1.231380  -5.604056
     C  -5.866087   0.830095  -4.232525
     C  -5.086515   2.240162  -6.046865
     H  -6.652243   0.816813  -6.298663
     C  -4.993648   1.390804  -3.376564
     H  -6.588153   0.026586  -3.920477
     C  -4.161458   2.870151  -5.132650
     H  -5.104808   2.575322  -7.063859
     C  -4.126057   2.367468  -3.851536
     H  -4.990171   1.077365  -2.337070
     H  -3.487995   3.651821  -5.496246
     H  -3.422196   2.855662  -3.105916
     C  -2.566166   6.010943  -3.788755
     C  -2.515095   6.497116  -5.077291
     C  -1.729215   5.034496  -3.360394
     H  -3.285286   6.473657  -3.092897
     C  -1.625446   5.858047  -6.050976
     H  -3.234753   7.227390  -5.466398
     C  -0.833277   4.432685  -4.269681
     H  -1.753075   4.709092  -2.334944
     C  -0.734492   4.831898  -5.599964
     H  -1.635513   6.233831  -7.090978
     H  -0.157703   3.697169  -3.878599
     H  -0.071554   4.451709  -6.278034
     C  -5.969076   5.977255  -0.896231
     C  -5.030757   5.024951  -1.323548
     H  -6.666958   6.490682  -1.558856
     C  -5.942229   6.462941   0.421371
     C  -4.144490   4.459677  -0.417516
     H  -5.121903   4.732035  -2.359778
     C  -4.962988   5.868705   1.315589
     H  -6.549624   7.246131   0.765044
     H  -3.499576   3.660712  -0.794319
     C  -4.156192   4.846161   0.926651
     H  -4.981320   6.225056   2.350276
     H  -3.424960   4.411552   1.562439
     C  -5.937811   1.231380   3.802619
     C  -5.866087   0.830095   5.174150
     C  -5.086515   2.240162   3.359810
     H  -6.652243   0.816813   3.108012
     C  -4.993648   1.390804   6.030111
     H  -6.588153   0.026586   5.486198
     C  -4.161458   2.870151   4.274025
     H  -5.104808   2.575322   2.342816
     C  -4.126057   2.367468   5.555139
     H  -4.990171   1.077365   7.069605
     H  -3.487995   3.651821   3.910429
     H  -3.422196   2.855662   6.300759
     C  -2.566166   6.010943   5.617920
     C  -2.515095   6.497116   4.329384
     C  -1.729215   5.034496   6.046281
     H  -3.285286   6.473657   6.313778
     C  -1.625446   5.858047   3.355699
     H  -3.234753   7.227390   3.940277
     C  -0.833277   4.432685   5.136994
     H  -1.753075   4.709092   7.071731
     C  -0.734492   4.831898   3.806711
     H  -1.635513   6.233831   2.315697
     H  -0.157703   3.697169   5.528076
     H  -0.071554   4.451709   3.128641
     C  -0.800021   2.407117   8.540978
     C  -1.643106   1.404536   8.073532
     H  -0.098084   2.834399   7.859003
     C  -0.800680   2.795731   9.831000
     C  -2.567222   0.829171   8.991351
     H  -1.625042   1.064076   7.019053
     C  -1.712745   2.278996  10.760107
     H  -0.146969   3.659018  10.174108
     H  -3.270813   0.027422   8.617417
     C  -2.568963   1.204053  10.318604
     H  -1.750439   2.579793  11.737724
     H  -3.267592   0.745774  10.966103
     C  -5.969076   5.977255   8.510444
     C  -5.030757   5.024951   8.083127
     H  -6.666958   6.490682   7.847819
     C  -5.942229   6.462941   9.828046
     C  -4.144490   4.459677   8.989159
     H  -5.121903   4.732035   7.046897
     C  -4.962988   5.868705  10.722264
     H  -6.549624   7.246131  10.171719
     H  -3.499576   3.660712   8.612356
     C  -4.156192   4.846161  10.333326
     H  -4.981320   6.225056  11.756951
     H  -3.424960   4.411552  10.969114
     H  -5.104808   2.575322  11.749491
     C  -5.086515   2.240162  12.766485
     C  -5.937811   1.231380  13.209294
     C  -4.161458   2.870151  13.680700
     C  -5.866087   0.830095  14.580825
     H  -6.652243   0.816813  12.514687
     C  -4.126057   2.367468  14.961814
     H  -3.487995   3.651821  13.317104
     C  -4.993648   1.390804  15.436786
     H  -6.588153   0.026586  14.892873
     H  -3.422196   2.855662  15.707434
     H  -4.990171   1.077365  16.476280
     C  -5.937811   8.501042  -5.604056
     C  -5.866087   8.099757  -4.232525
     C  -5.086515   9.509824  -6.046865
     H  -6.652243   8.086475  -6.298663
     C  -4.993648   8.660466  -3.376564
     H  -6.588153   7.296248  -3.920477
     C  -4.161458  10.139813  -5.132650
     H  -5.104808   9.844984  -7.063859
     C  -4.126057   9.637130  -3.851536
     H  -4.990171   8.347027  -2.337070
     H  -3.487995  10.921483  -5.496246
     H  -3.422196  10.125324  -3.105916
     C  -0.833277  11.702347  -4.269681
     C  -0.734492  12.101560  -5.599964
     C  -1.729215  12.304158  -3.360394
     H  -0.157703  10.966831  -3.878599
     C  -1.625446  13.127709  -6.050976
     H  -0.071554  11.721371  -6.278034
     C  -2.566166  13.280605  -3.788755
     H  -1.753075  11.978754  -2.334944
     C  -2.515095  13.766778  -5.077291
     H  -1.635513  13.503493  -7.090978
     H  -3.285286  13.743319  -3.092897
     H  -3.234753  14.497052  -5.466398
     C  -0.800021   9.676779  -0.865697
     C  -1.643106   8.674198  -1.333143
     H  -0.098084  10.104061  -1.547672
     C  -0.800680  10.065393   0.424325
     C  -2.567222   8.098833  -0.415324
     H  -1.625042   8.333738  -2.387622
     C  -1.712745   9.548658   1.353432
     H  -0.146969  10.928680   0.767433
     H  -3.270813   7.297084  -0.789258
     C  -2.568963   8.473715   0.911929
     H  -1.750439   9.849455   2.331049
     H  -3.267592   8.015436   1.559428
     C  -1.712745   9.548658  -8.053243
     C  -0.800680  10.065393  -8.982350
     C  -2.568963   8.473715  -8.494746
     H  -1.750439   9.849455  -7.075626
     C  -0.800021   9.676779 -10.272372
     H  -0.146969  10.928680  -8.639242
     C  -2.567222   8.098833  -9.821999
     H  -3.267592   8.015436  -7.847247
     C  -1.643106   8.674198 -10.739818
     H  -0.098084  10.104061 -10.954347
     H  -3.270813   7.297084 -10.195933
     H  -1.625042   8.333738 -11.794297
     C  -4.144490  11.729339  -0.417516
     C  -5.030757  12.294613  -1.323548
     H  -3.499576  10.930374  -0.794319
     C  -4.156192  12.115823   0.926651
     C  -5.969076  13.246917  -0.896231
     H  -5.121903  12.001697  -2.359778
     C  -4.962988  13.138367   1.315589
     H  -3.424960  11.681214   1.562439
     H  -6.666958  13.760344  -1.558856
     C  -5.942229  13.732603   0.421371
     H  -4.981320  13.494718   2.350276
     H  -6.549624  14.515793   0.765044
     C  -5.937811   8.501042   3.802619
     C  -5.866087   8.099757   5.174150
     C  -5.086515   9.509824   3.359810
     H  -6.652243   8.086475   3.108012
     C  -4.993648   8.660466   6.030111
     H  -6.588153   7.296248   5.486198
     C  -4.161458  10.139813   4.274025
     H  -5.104808   9.844984   2.342816
     C  -4.126057   9.637130   5.555139
     H  -4.990171   8.347027   7.069605
     H  -3.487995  10.921483   3.910429
     H  -3.422196  10.125324   6.300759
     C  -0.734492  12.101560   3.806711
     C  -0.833277  11.702347   5.136994
     C  -1.625446  13.127709   3.355699
     H  -0.071554  11.721371   3.128641
     C  -1.729215  12.304158   6.046281
     H  -0.157703  10.966831   5.528076
     C  -2.515095  13.766778   4.329384
     H  -1.635513  13.503493   2.315697
     C  -2.566166  13.280605   5.617920
     H  -1.753075  11.978754   7.071731
     H  -3.234753  14.497052   3.940277
     H  -3.285286  13.743319   6.313778
     C  -0.800021   9.676779   8.540978
     C  -1.643106   8.674198   8.073532
     H  -0.098084  10.104061   7.859003
     C  -0.800680  10.065393   9.831000
     C  -2.567222   8.098833   8.991351
     H  -1.625042   8.333738   7.019053
     C  -1.712745   9.548658  10.760107
     H  -0.146969  10.928680  10.174108
     H  -3.270813   7.297084   8.617417
     C  -2.568963   8.473715  10.318604
     H  -1.750439   9.849455  11.737724
     H  -3.267592   8.015436  10.966103
     C   2.599089 -12.171856  -3.851536
     C   2.563688 -11.669173  -5.132650
     C   1.731498 -13.148520  -3.376564
     H   3.302950 -11.683662  -3.105916
     C   1.638631 -12.299162  -6.046865
     H   3.237151 -10.887503  -5.496246
     C   0.859059 -13.709229  -4.232525
     H   1.734975 -13.461959  -2.337070
     C   0.787335 -13.307944  -5.604056
     H   1.620338 -11.964002  -7.063859
     H   0.136993 -14.512738  -3.920477
     H   0.072903 -13.722511  -6.298663
     C   4.158980  -8.528381  -3.788755
     C   4.210051  -8.042208  -5.077291
     C   4.995931  -9.504828  -3.360394
     H   3.439860  -8.065667  -3.092897
     C   5.099700  -8.681277  -6.050976
     H   3.490393  -7.311934  -5.466398
     C   5.891869 -10.106639  -4.269681
     H   4.972071  -9.830232  -2.334944
     C   5.990654  -9.707426  -5.599964
     H   5.089633  -8.305493  -7.090978
     H   6.567443 -10.842155  -3.878599
     H   6.653592 -10.087615  -6.278034
     C   5.925125 -12.132207  -0.865697
     C   5.082040 -13.134788  -1.333143
     H   6.627062 -11.704925  -1.547672
     C   5.924466 -11.743593   0.424325
     C   4.157924 -13.710153  -0.415324
     H   5.100104 -13.475248  -2.387622
     C   5.012401 -12.260328   1.353432
     H   6.578177 -10.880306   0.767433
     H   3.454333 -14.511902  -0.789258
     C   4.156183 -13.335271   0.911929
     H   4.974707 -11.959531   2.331049
     H   3.457554 -13.793550   1.559428
     C   0.782917  -8.076383  -8.985304
     C   0.756070  -8.562069 -10.302906
     C   1.762158  -8.670619  -8.091086
     H   0.175522  -7.293193  -8.641631
     C   1.694389  -9.514373 -10.730223
     H   0.058188  -8.048642 -10.965531
     C   2.568954  -9.693163  -8.480024
     H   1.743826  -8.314268  -7.056399
     C   2.580656 -10.079647  -9.824191
     H   1.603243  -9.807289 -11.766453
     H   3.300186 -10.127772  -7.844236
     H   3.225570 -10.878612 -10.200994
     C   0.756070  -8.562069  -0.896231
     C   1.694389  -9.514373  -1.323548
     H   0.058188  -8.048642  -1.558856
     C   0.782917  -8.076383   0.421371
     C   2.580656 -10.079647  -0.417516
     H   1.603243  -9.807289  -2.359778
     C   1.762158  -8.670619   1.315589
     H   0.175522  -7.293193   0.765044
     H   3.225570 -10.878612  -0.794319
     C   2.568954  -9.693163   0.926651
     H   1.743826  -8.314268   2.350276
     H   3.300186 -10.127772   1.562439
     C   4.158980  -8.528381   5.617920
     C   4.210051  -8.042208   4.329384
     C   4.995931  -9.504828   6.046281
     H   3.439860  -8.065667   6.313778
     C   5.099700  -8.681277   3.355699
     H   3.490393  -7.311934   3.940277
     C   5.891869 -10.106639   5.136994
     H   4.972071  -9.830232   7.071731
     C   5.990654  -9.707426   3.806711
     H   5.089633  -8.305493   2.315697
     H   6.567443 -10.842155   5.528076
     H   6.653592 -10.087615   3.128641
     C   2.563688 -11.669173   4.274025
     C   2.599089 -12.171856   5.555139
     C   1.638631 -12.299162   3.359810
     H   3.237151 -10.887503   3.910429
     C   1.731498 -13.148520   6.030111
     H   3.302950 -11.683662   6.300759
     C   0.787335 -13.307944   3.802619
     H   1.620338 -11.964002   2.342816
     C   0.859059 -13.709229   5.174150
     H   1.734975 -13.461959   7.069605
     H   0.072903 -13.722511   3.108012
     H   0.136993 -14.512738   5.486198
     C   0.756070  -8.562069   8.510444
     C   1.694389  -9.514373   8.083127
     H   0.058188  -8.048642   7.847819
     C   0.782917  -8.076383   9.828046
     C   2.580656 -10.079647   8.989159
     H   1.603243  -9.807289   7.046897
     C   1.762158  -8.670619  10.722264
     H   0.175522  -7.293193  10.171719
     H   3.225570 -10.878612   8.612356
     C   2.568954  -9.693163  10.333326
     H   1.743826  -8.314268  11.756951
     H   3.300186 -10.127772  10.969114
     H   4.972071  -2.560570 -11.741619
     C   4.995931  -2.235166 -12.767069
     C   4.158980  -1.258719 -13.195430
     C   5.891869  -2.836977 -13.676356
     C   4.210051  -0.772546 -14.483966
     H   3.439860  -0.796005 -12.499572
     C   5.990654  -2.437764 -15.006639
     H   6.567443  -3.572493 -13.285274
     C   5.099700  -1.411615 -15.457651
     H   3.490393  -0.042272 -14.873073
     H   6.653592  -2.817953 -15.684709
     H   5.089633  -1.035831 -16.497653
     C   5.925125  -4.862545 -10.272372
     C   5.082040  -5.865126 -10.739818
     H   6.627062  -4.435263 -10.954347
     C   5.924466  -4.473931  -8.982350
     C   4.157924  -6.440491  -9.821999
     H   5.100104  -6.205586 -11.794297
     C   5.012401  -4.990666  -8.053243
     H   6.578177  -3.610644  -8.639242
     H   3.454333  -7.242240 -10.195933
     C   4.156183  -6.065609  -8.494746
     H   4.974707  -4.689869  -7.075626
     H   3.457554  -6.523888  -7.847247
     C   0.756070  -1.292407 -10.302906
     C   1.694389  -2.244711 -10.730223
     H   0.058188  -0.778980 -10.965531
     C   0.782917  -0.806721  -8.985304
     C   2.580656  -2.809985  -9.824191
     H   1.603243  -2.537627 -11.766453
     C   1.762158  -1.400957  -8.091086
     H   0.175522  -0.023531  -8.641631
     H   3.225570  -3.608950 -10.200994
     C   2.568954  -2.423501  -8.480024
     H   1.743826  -1.044606  -7.056399
     H   3.300186  -2.858110  -7.844236
     C   0.787335  -6.038282  -5.604056
     C   0.859059  -6.439567  -4.232525
     C   1.638631  -5.029500  -6.046865
     H   0.072903  -6.452849  -6.298663
     C   1.731498  -5.878858  -3.376564
     H   0.136993  -7.243076  -3.920477
     C   2.563688  -4.399511  -5.132650
     H   1.620338  -4.694340  -7.063859
     C   2.599089  -4.902194  -3.851536
     H   1.734975  -6.192297  -2.337070
     H   3.237151  -3.617841  -5.496246
     H   3.302950  -4.414000  -3.105916
     C   4.158980  -1.258719  -3.788755
     C   4.210051  -0.772546  -5.077291
     C   4.995931  -2.235166  -3.360394
     H   3.439860  -0.796005  -3.092897
     C   5.099700  -1.411615  -6.050976
     H   3.490393  -0.042272  -5.466398
     C   5.891869  -2.836977  -4.269681
     H   4.972071  -2.560570  -2.334944
     C   5.990654  -2.437764  -5.599964
     H   5.089633  -1.035831  -7.090978
     H   6.567443  -3.572493  -3.878599
     H   6.653592  -2.817953  -6.278034
     C   5.925125  -4.862545  -0.865697
     C   5.082040  -5.865126  -1.333143
     H   6.627062  -4.435263  -1.547672
     C   5.924466  -4.473931   0.424325
     C   4.157924  -6.440491  -0.415324
     H   5.100104  -6.205586  -2.387622
     C   5.012401  -4.990666   1.353432
     H   6.578177  -3.610644   0.767433
     H   3.454333  -7.242240  -0.789258
     C   4.156183  -6.065609   0.911929
     H   4.974707  -4.689869   2.331049
     H   3.457554  -6.523888   1.559428
     C   0.787335  -6.038282   3.802619
     C   0.859059  -6.439567   5.174150
     C   1.638631  -5.029500   3.359810
     H   0.072903  -6.452849   3.108012
     C   1.731498  -5.878858   6.030111
     H   0.136993  -7.243076   5.486198
     C   2.563688  -4.399511   4.274025
     H   1.620338  -4.694340   2.342816
     C   2.599089  -4.902194   5.555139
     H   1.734975  -6.192297   7.069605
     H   3.237151  -3.617841   3.910429
     H   3.302950  -4.414000   6.300759
     C   4.158980  -1.258719   5.617920
     C   4.210051  -0.772546   4.329384
     C   4.995931  -2.235166   6.046281
     H   3.439860  -0.796005   6.313778
     C   5.099700  -1.411615   3.355699
     H   3.490393  -0.042272   3.940277
     C   5.891869  -2.836977   5.136994
     H   4.972071  -2.560570   7.071731
     C   5.990654  -2.437764   3.806711
     H   5.089633  -1.035831   2.315697
     H   6.567443  -3.572493   5.528076
     H   6.653592  -2.817953   3.128641
     C   5.925125  -4.862545   8.540978
     C   5.082040  -5.865126   8.073532
     H   6.627062  -4.435263   7.859003
     C   5.924466  -4.473931   9.831000
     C   4.157924  -6.440491   8.991351
     H   5.100104  -6.205586   7.019053
     C   5.012401  -4.990666  10.760107
     H   6.578177  -3.610644  10.174108
     H   3.454333  -7.242240   8.617417
     C   4.156183  -6.065609  10.318604
     H   4.974707  -4.689869  11.737724
     H   3.457554  -6.523888  10.966103
     C   0.756070  -1.292407   8.510444
     C   1.694389  -2.244711   8.083127
     H   0.058188  -0.778980   7.847819
     C   0.782917  -0.806721   9.828046
     C   2.580656  -2.809985   8.989159
     H   1.603243  -2.537627   7.046897
     C   1.762158  -1.400957  10.722264
     H   0.175522  -0.023531  10.171719
     H   3.225570  -3.608950   8.612356
     C   2.568954  -2.423501  10.333326
     H   1.743826  -1.044606  11.756951
     H   3.300186  -2.858110  10.969114
     H   5.089633  -1.035831  11.722372
     C   5.099700  -1.411615  12.762374
     C   5.990654  -2.437764  13.213386
     C   4.210051  -0.772546  13.736059
     C   5.891869  -2.836977  14.543669
     H   6.653592  -2.817953  12.535316
     C   4.158980  -1.258719  15.024595
     H   3.490393  -0.042272  13.346952
     C   4.995931  -2.235166  15.452956
     H   6.567443  -3.572493  14.934751
     H   3.439860  -0.796005  15.720453
     H   4.972071  -2.560570  16.478406
     H   1.734975   1.077365 -11.743745
     C   1.731498   1.390804 -12.783239
     C   2.599089   2.367468 -13.258211
     C   0.859059   0.830095 -13.639200
     C   2.563688   2.870151 -14.539325
     H   3.302950   2.855662 -12.512591
     C   0.787335   1.231380 -15.010731
     H   0.136993   0.026586 -13.327152
     C   1.638631   2.240162 -15.453540
     H   3.237151   3.651821 -14.902921
     H   0.072903   0.816813 -15.705338
     H   1.620338   2.575322 -16.470534
     C   5.082040   1.404536 -10.739818
     C   5.925125   2.407117 -10.272372
     C   4.157924   0.829171  -9.821999
     H   5.100104   1.064076 -11.794297
     H   6.627062   2.834399 -10.954347
     C   5.924466   2.795731  -8.982350
     H   3.454333   0.027422 -10.195933
     C   4.156183   1.204053  -8.494746
     C   5.012401   2.278996  -8.053243
     H   6.578177   3.659018  -8.639242
     H   3.457554   0.745774  -7.847247
     H   4.974707   2.579793  -7.075626
     C   0.756070   5.977255 -10.302906
     C   1.694389   5.024951 -10.730223
     H   0.058188   6.490682 -10.965531
     C   0.782917   6.462941  -8.985304
     C   2.580656   4.459677  -9.824191
     H   1.603243   4.732035 -11.766453
     C   1.762158   5.868705  -8.091086
     H   0.175522   7.246131  -8.641631
     H   3.225570   3.660712 -10.200994
     C   2.568954   4.846161  -8.480024
     H   1.743826   6.225056  -7.056399
     H   3.300186   4.411552  -7.844236
     C   0.787335   1.231380  -5.604056
     C   0.859059   0.830095  -4.232525
     C   1.638631   2.240162  -6.046865
     H   0.072903   0.816813  -6.298663
     C   1.731498   1.390804  -3.376564
     H   0.136993   0.026586  -3.920477
     C   2.563688   2.870151  -5.132650
     H   1.620338   2.575322  -7.063859
     C   2.599089   2.367468  -3.851536
     H   1.734975   1.077365  -2.337070
     H   3.237151   3.651821  -5.496246
     H   3.302950   2.855662  -3.105916
     C   4.158980   6.010943  -3.788755
     C   4.210051   6.497116  -5.077291
     C   4.995931   5.034496  -3.360394
     H   3.439860   6.473657  -3.092897
     C   5.099700   5.858047  -6.050976
     H   3.490393   7.227390  -5.466398
     C   5.891869   4.432685  -4.269681
     H   4.972071   4.709092  -2.334944
     C   5.990654   4.831898  -5.599964
     H   5.089633   6.233831  -7.090978
     H   6.567443   3.697169  -3.878599
     H   6.653592   4.451709  -6.278034
     C   5.925125   2.407117  -0.865697
     C   5.082040   1.404536  -1.333143
     H   6.627062   2.834399  -1.547672
     C   5.924466   2.795731   0.424325
     C   4.157924   0.829171  -0.415324
     H   5.100104   1.064076  -2.387622
     C   5.012401   2.278996   1.353432
     H   6.578177   3.659018   0.767433
     H   3.454333   0.027422  -0.789258
     C   4.156183   1.204053   0.911929
     H   4.974707   2.579793   2.331049
     H   3.457554   0.745774   1.559428
     C   0.756070   5.977255  -0.896231
     C   1.694389   5.024951  -1.323548
     H   0.058188   6.490682  -1.558856
     C   0.782917   6.462941   0.421371
     C   2.580656   4.459677  -0.417516
     H   1.603243   4.732035  -2.359778
     C   1.762158   5.868705   1.315589
     H   0.175522   7.246131   0.765044
     H   3.225570   3.660712  -0.794319
     C   2.568954   4.846161   0.926651
     H   1.743826   6.225056   2.350276
     H   3.300186   4.411552   1.562439
     C   0.787335   1.231380   3.802619
     C   0.859059   0.830095   5.174150
     C   1.638631   2.240162   3.359810
     H   0.072903   0.816813   3.108012
     C   1.731498   1.390804   6.030111
     H   0.136993   0.026586   5.486198
     C   2.563688   2.870151   4.274025
     H   1.620338   2.575322   2.342816
     C   2.599089   2.367468   5.555139
     H   1.734975   1.077365   7.069605
     H   3.237151   3.651821   3.910429
     H   3.302950   2.855662   6.300759
     C   4.158980   6.010943   5.617920
     C   4.210051   6.497116   4.329384
     C   4.995931   5.034496   6.046281
     H   3.439860   6.473657   6.313778
     C   5.099700   5.858047   3.355699
     H   3.490393   7.227390   3.940277
     C   5.891869   4.432685   5.136994
     H   4.972071   4.709092   7.071731
     C   5.990654   4.831898   3.806711
     H   5.089633   6.233831   2.315697
     H   6.567443   3.697169   5.528076
     H   6.653592   4.451709   3.128641
     C   5.925125   2.407117   8.540978
     C   5.082040   1.404536   8.073532
     H   6.627062   2.834399   7.859003
     C   5.924466   2.795731   9.831000
     C   4.157924   0.829171   8.991351
     H   5.100104   1.064076   7.019053
     C   5.012401   2.278996  10.760107
     H   6.578177   3.659018  10.174108
     H   3.454333   0.027422   8.617417
     C   4.156183   1.204053  10.318604
     H   4.974707   2.579793  11.737724
     H   3.457554   0.745774  10.966103
     C   0.756070   5.977255   8.510444
     C   1.694389   5.024951   8.083127
     H   0.058188   6.490682   7.847819
     C   0.782917   6.462941   9.828046
     C   2.580656   4.459677   8.989159
     H   1.603243   4.732035   7.046897
     C   1.762158   5.868705  10.722264
     H   0.175522   7.246131  10.171719
     H   3.225570   3.660712   8.612356
     C   2.568954   4.846161  10.333326
     H   1.743826   6.225056  11.756951
     H   3.300186   4.411552  10.969114
     C   0.787335   8.501042  -5.604056
     C   0.859059   8.099757  -4.232525
     C   1.638631   9.509824  -6.046865
     H   0.072903   8.086475  -6.298663
     C   1.731498   8.660466  -3.376564
     H   0.136993   7.296248  -3.920477
     C   2.563688  10.139813  -5.132650
     H   1.620338   9.844984  -7.063859
     C   2.599089   9.637130  -3.851536
     H   1.734975   8.347027  -2.337070
     H   3.237151  10.921483  -5.496246
     H   3.302950  10.125324  -3.105916
     C   5.925125   9.676779  -0.865697
     C   5.082040   8.674198  -1.333143
     H   6.627062  10.104061  -1.547672
     C   5.924466  10.065393   0.424325
     C   4.157924   8.098833  -0.415324
     H   5.100104   8.333738  -2.387622
     C   5.012401   9.548658   1.353432
     H   6.578177  10.928680   0.767433
     H   3.454333   7.297084  -0.789258
     C   4.156183   8.473715   0.911929
     H   4.974707   9.849455   2.331049
     H   3.457554   8.015436   1.559428
     C   0.756070  13.246917  -0.896231
     C   1.694389  12.294613  -1.323548
     H   0.058188  13.760344  -1.558856
     C   0.782917  13.732603   0.421371
     C   2.580656  11.729339  -0.417516
     H   1.603243  12.001697  -2.359778
     C   1.762158  13.138367   1.315589
     H   0.175522  14.515793   0.765044
     H   3.225570  10.930374  -0.794319
     C   2.568954  12.115823   0.926651
     H   1.743826  13.494718   2.350276
     H   3.300186  11.681214   1.562439
     C   4.156183   8.473715  -8.494746
     C   4.157924   8.098833  -9.821999
     C   5.012401   9.548658  -8.053243
     H   3.457554   8.015436  -7.847247
     C   5.082040   8.674198 -10.739818
     H   3.454333   7.297084 -10.195933
     C   5.924466  10.065393  -8.982350
     H   4.974707   9.849455  -7.075626
     C   5.925125   9.676779 -10.272372
     H   5.100104   8.333738 -11.794297
     H   6.578177  10.928680  -8.639242
     H   6.627062  10.104061 -10.954347
     C   0.787335   8.501042   3.802619
     C   0.859059   8.099757   5.174150
     C   1.638631   9.509824   3.359810
     H   0.072903   8.086475   3.108012
     C   1.731498   8.660466   6.030111
     H   0.136993   7.296248   5.486198
     C   2.563688  10.139813   4.274025
     H   1.620338   9.844984   2.342816
     C   2.599089   9.637130   5.555139
     H   1.734975   8.347027   7.069605
     H   3.237151  10.921483   3.910429
     H   3.302950  10.125324   6.300759
     H   5.100104   8.333738   7.019053
     C   5.082040   8.674198   8.073532
     C   5.925125   9.676779   8.540978
     C   4.157924   8.098833   8.991351
     H   6.627062  10.104061   7.859003
     C   5.924466  10.065393   9.831000
     H   3.454333   7.297084   8.617417
     C   4.156183   8.473715  10.318604
     C   5.012401   9.548658  10.760107
     H   6.578177  10.928680  10.174108
     H   3.457554   8.015436  10.966103
     H   4.974707   9.849455  11.737724
     C  10.884126  -8.528381  -3.788755
     C  10.935197  -8.042208  -5.077291
     C  11.721077  -9.504828  -3.360394
     H  10.165006  -8.065667  -3.092897
     C  11.824846  -8.681277  -6.050976
     H  10.215539  -7.311934  -5.466398
     C  12.617015 -10.106639  -4.269681
     H  11.697217  -9.830232  -2.334944
     C  12.715800  -9.707426  -5.599964
     H  11.814779  -8.305493  -7.090978
     H  13.292589 -10.842155  -3.878599
     H  13.378738 -10.087615  -6.278034
     C   7.481216  -8.562069  -0.896231
     C   8.419535  -9.514373  -1.323548
     H   6.783334  -8.048642  -1.558856
     C   7.508063  -8.076383   0.421371
     C   9.305802 -10.079647  -0.417516
     H   8.328389  -9.807289  -2.359778
     C   8.487304  -8.670619   1.315589
     H   6.900668  -7.293193   0.765044
     H   9.950716 -10.878612  -0.794319
     C   9.294100  -9.693163   0.926651
     H   8.468972  -8.314268   2.350276
     H  10.025332 -10.127772   1.562439
     H   6.900668  -7.293193  -8.641631
     C   7.508063  -8.076383  -8.985304
     C   7.481216  -8.562069 -10.302906
     C   8.487304  -8.670619  -8.091086
     C   8.419535  -9.514373 -10.730223
     H   6.783334  -8.048642 -10.965531
     C   9.294100  -9.693163  -8.480024
     H   8.468972  -8.314268  -7.056399
     C   9.305802 -10.079647  -9.824191
     H   8.328389  -9.807289 -11.766453
     H  10.025332 -10.127772  -7.844236
     H   9.950716 -10.878612 -10.200994
     C  10.935197  -8.042208   4.329384
     C  10.884126  -8.528381   5.617920
     C  11.824846  -8.681277   3.355699
     H  10.215539  -7.311934   3.940277
     C  11.721077  -9.504828   6.046281
     H  10.165006  -8.065667   6.313778
     C  12.715800  -9.707426   3.806711
     H  11.814779  -8.305493   2.315697
     C  12.617015 -10.106639   5.136994
     H  11.697217  -9.830232   7.071731
     H  13.378738 -10.087615   3.128641
     H  13.292589 -10.842155   5.528076
     C   7.481216  -8.562069   8.510444
     C   8.419535  -9.514373   8.083127
     H   6.783334  -8.048642   7.847819
     C   7.508063  -8.076383   9.828046
     C   9.305802 -10.079647   8.989159
     H   8.328389  -9.807289   7.046897
     C   8.487304  -8.670619  10.722264
     H   6.900668  -7.293193  10.171719
     H   9.950716 -10.878612   8.612356
     C   9.294100  -9.693163  10.333326
     H   8.468972  -8.314268  11.756951
     H  10.025332 -10.127772  10.969114
     C   7.481216  -1.292407 -10.302906
     C   8.419535  -2.244711 -10.730223
     H   6.783334  -0.778980 -10.965531
     C   7.508063  -0.806721  -8.985304
     C   9.305802  -2.809985  -9.824191
     H   8.328389  -2.537627 -11.766453
     C   8.487304  -1.400957  -8.091086
     H   6.900668  -0.023531  -8.641631
     H   9.950716  -3.608950 -10.200994
     C   9.294100  -2.423501  -8.480024
     H   8.468972  -1.044606  -7.056399
     H  10.025332  -2.858110  -7.844236
     C   7.512481  -6.038282  -5.604056
     C   7.584205  -6.439567  -4.232525
     C   8.363777  -5.029500  -6.046865
     H   6.798049  -6.452849  -6.298663
     C   8.456644  -5.878858  -3.376564
     H   6.862139  -7.243076  -3.920477
     C   9.288834  -4.399511  -5.132650
     H   8.345484  -4.694340  -7.063859
     C   9.324235  -4.902194  -3.851536
     H   8.460121  -6.192297  -2.337070
     H   9.962297  -3.617841  -5.496246
     H  10.028096  -4.414000  -3.105916
     C  10.884126  -1.258719  -3.788755
     C  10.935197  -0.772546  -5.077291
     C  11.721077  -2.235166  -3.360394
     H  10.165006  -0.796005  -3.092897
     C  11.824846  -1.411615  -6.050976
     H  10.215539  -0.042272  -5.466398
     C  12.617015  -2.836977  -4.269681
     H  11.697217  -2.560570  -2.334944
     C  12.715800  -2.437764  -5.599964
     H  11.814779  -1.035831  -7.090978
     H  13.292589  -3.572493  -3.878599
     H  13.378738  -2.817953  -6.278034
     C  12.650271  -4.862545  -0.865697
     C  11.807186  -5.865126  -1.333143
     H  13.352208  -4.435263  -1.547672
     C  12.649612  -4.473931   0.424325
     C  10.883070  -6.440491  -0.415324
     H  11.825250  -6.205586  -2.387622
     C  11.737547  -4.990666   1.353432
     H  13.303323  -3.610644   0.767433
     H  10.179479  -7.242240  -0.789258
     C  10.881329  -6.065609   0.911929
     H  11.699853  -4.689869   2.331049
     H  10.182700  -6.523888   1.559428
     C   7.481216  -1.292407  -0.896231
     C   8.419535  -2.244711  -1.323548
     H   6.783334  -0.778980  -1.558856
     C   7.508063  -0.806721   0.421371
     C   9.305802  -2.809985  -0.417516
     H   8.328389  -2.537627  -2.359778
     C   8.487304  -1.400957   1.315589
     H   6.900668  -0.023531   0.765044
     H   9.950716  -3.608950  -0.794319
     C   9.294100  -2.423501   0.926651
     H   8.468972  -1.044606   2.350276
     H  10.025332  -2.858110   1.562439
     C   7.512481  -6.038282   3.802619
     C   7.584205  -6.439567   5.174150
     C   8.363777  -5.029500   3.359810
     H   6.798049  -6.452849   3.108012
     C   8.456644  -5.878858   6.030111
     H   6.862139  -7.243076   5.486198
     C   9.288834  -4.399511   4.274025
     H   8.345484  -4.694340   2.342816
     C   9.324235  -4.902194   5.555139
     H   8.460121  -6.192297   7.069605
     H   9.962297  -3.617841   3.910429
     H  10.028096  -4.414000   6.300759
     C  10.884126  -1.258719   5.617920
     C  10.935197  -0.772546   4.329384
     C  11.721077  -2.235166   6.046281
     H  10.165006  -0.796005   6.313778
     C  11.824846  -1.411615   3.355699
     H  10.215539  -0.042272   3.940277
     C  12.617015  -2.836977   5.136994
     H  11.697217  -2.560570   7.071731
     C  12.715800  -2.437764   3.806711
     H  11.814779  -1.035831   2.315697
     H  13.292589  -3.572493   5.528076
     H  13.378738  -2.817953   3.128641
     C   7.481216  -1.292407   8.510444
     C   8.419535  -2.244711   8.083127
     H   6.783334  -0.778980   7.847819
     C   7.508063  -0.806721   9.828046
     C   9.305802  -2.809985   8.989159
     H   8.328389  -2.537627   7.046897
     C   8.487304  -1.400957  10.722264
     H   6.900668  -0.023531  10.171719
     H   9.950716  -3.608950   8.612356
     C   9.294100  -2.423501  10.333326
     H   8.468972  -1.044606  11.756951
     H  10.025332  -2.858110  10.969114
     C   7.512481   1.231380  -5.604056
     C   7.584205   0.830095  -4.232525
     C   8.363777   2.240162  -6.046865
     H   6.798049   0.816813  -6.298663
     C   8.456644   1.390804  -3.376564
     H   6.862139   0.026586  -3.920477
     C   9.288834   2.870151  -5.132650
     H   8.345484   2.575322  -7.063859
     C   9.324235   2.367468  -3.851536
     H   8.460121   1.077365  -2.337070
     H   9.962297   3.651821  -5.496246
     H  10.028096   2.855662  -3.105916
     C  11.807186   1.404536  -1.333143
     C  12.650271   2.407117  -0.865697
     C  10.883070   0.829171  -0.415324
     H  11.825250   1.064076  -2.387622
     H  13.352208   2.834399  -1.547672
     C  12.649612   2.795731   0.424325
     H  10.179479   0.027422  -0.789258
     C  10.881329   1.204053   0.911929
     C  11.737547   2.278996   1.353432
     H  13.303323   3.659018   0.767433
     H  10.182700   0.745774   1.559428
     H  11.699853   2.579793   2.331049
     C   7.481216   5.977255  -0.896231
     C   8.419535   5.024951  -1.323548
     H   6.783334   6.490682  -1.558856
     C   7.508063   6.462941   0.421371
     C   9.305802   4.459677  -0.417516
     H   8.328389   4.732035  -2.359778
     C   8.487304   5.868705   1.315589
     H   6.900668   7.246131   0.765044
     H   9.950716   3.660712  -0.794319
     C   9.294100   4.846161   0.926651
     H   8.468972   6.225056   2.350276
     H  10.025332   4.411552   1.562439
     C   7.512481   1.231380   3.802619
     C   7.584205   0.830095   5.174150
     C   8.363777   2.240162   3.359810
     H   6.798049   0.816813   3.108012
     C   8.456644   1.390804   6.030111
     H   6.862139   0.026586   5.486198
     C   9.288834   2.870151   4.274025
     H   8.345484   2.575322   2.342816
     C   9.324235   2.367468   5.555139
     H   8.460121   1.077365   7.069605
     H   9.962297   3.651821   3.910429
     H  10.028096   2.855662   6.300759
     H   8.328389   4.732035   7.046897
     C   8.419535   5.024951   8.083127
     C   7.481216   5.977255   8.510444
     C   9.305802   4.459677   8.989159
     H   6.783334   6.490682   7.847819
     C   7.508063   6.462941   9.828046
     H   9.950716   3.660712   8.612356
     C   9.294100   4.846161  10.333326
     C   8.487304   5.868705  10.722264
     H   6.900668   7.246131  10.171719
     H  10.025332   4.411552  10.969114
     H   8.468972   6.225056  11.756951
     C   7.584205   8.099757  -4.232525
     C   7.512481   8.501042  -5.604056
     C   8.456644   8.660466  -3.376564
     H   6.862139   7.296248  -3.920477
     C   8.363777   9.509824  -6.046865
     H   6.798049   8.086475  -6.298663
     C   9.324235   9.637130  -3.851536
     H   8.460121   8.347027  -2.337070
     C   9.288834  10.139813  -5.132650
     H   8.345484   9.844984  -7.063859
     H  10.028096  10.125324  -3.105916
     H   9.962297  10.921483  -5.496246
     C   7.512481   8.501042   3.802619
     C   7.584205   8.099757   5.174150
     C   8.363777   9.509824   3.359810
     H   6.798049   8.086475   3.108012
     C   8.456644   8.660466   6.030111
     H   6.862139   7.296248   5.486198
     C   9.288834  10.139813   4.274025
     H   8.345484   9.844984   2.342816
     C   9.324235   9.637130   5.555139
     H   8.460121   8.347027   7.069605
     H   9.962297  10.921483   3.910429
     H  10.028096  10.125324   6.300759
