&GLOBAL
  PROJECT XXX__NAME__XXX
  RUN_TYPE GEO_OPT
  PRINT_LEVEL MEDIUM
&END GLOBAL
&FORCE_EVAL
  METHOD QS
  &SUBSYS
    &CELL
A XXX__AVEC__XXX 
B XXX__BVEC__XXX
C XXX__CVEC__XXX
    &END CELL
    &COORD
XXX__POS__XXX
    &END COORD
    &KIND H
      BASIS_SET DZVP-GTH-PBE
      POTENTIAL GTH-PBE-q1
    &END KIND
    &KIND C
      BASIS_SET DZVP-GTH-PBE
      POTENTIAL GTH-PBE-q4
    &END KIND
  &END SUBSYS
  &DFT
    BASIS_SET_FILE_NAME /data/home/btx156/cp2k/BASIS_SET
    POTENTIAL_FILE_NAME /data/home/btx156/cp2k/POTENTIAL
    &QS
      EPS_DEFAULT 1.0E-7
    &END QS
    &MGRID
      CUTOFF 200
      NGRIDS 4
      REL_CUTOFF 30
    &END MGRID
      &SCF
      SCF_GUESS ATOMIC
      EPS_SCF 1.0E-05
      MAX_SCF 200
      &DIAGONALIZATION T
        ALGORITHM STANDARD
      &END DIAGONALIZATION
      &MIXING T
        ALPHA 0.5
        METHOD PULAY_MIXING
        NPULAY 5
      &END MIXING
      &PRINT
        &RESTART OFF
        &END RESTART
      &END PRINT
    &END SCF
     &XC
       DENSITY_CUTOFF     1.0000000000000000E-10
       GRADIENT_CUTOFF     1.0000000000000000E-10
       TAU_CUTOFF     1.0000000000000000E-10
       &XC_FUNCTIONAL  NO_SHORTCUT
         &PBE  T
         &END PBE
       &END XC_FUNCTIONAL
     &VDW_POTENTIAL
      DISPERSION_FUNCTIONAL PAIR_POTENTIAL
      &PAIR_POTENTIAL
      TYPE DFTD2
      REFERENCE_FUNCTIONAL PBE
     &END PAIR_POTENTIAL
     &END VDW_POTENTIAL
     &END XC
  &END DFT
&END FORCE_EVAL
&MOTION
  &GEO_OPT
    TYPE MINIMIZATION
     OPTIMIZER  BFGS
     MAX_ITER  600
     STEP_START_VAL  1
  &END GEO_OPT
  &CONSTRAINT
    &FIXED_ATOMS
      COMPONENTS_TO_FIX XYZ
      LIST 1
    &END FIXED_ATOMS
  &END CONSTRAINT
&END MOTION  
