&GLOBAL
  PROJECT 2HC1
  RUN_TYPE GEO_OPT
  PRINT_LEVEL MEDIUM
&END GLOBAL
&FORCE_EVAL
  METHOD QS
  &SUBSYS
    &CELL
A  12.120000   0.000000   0.000000 
B   0.000000  10.285000   0.000000
C  -5.472020   0.000000  11.244199
    &END CELL
    &COORD
     C   4.930294   3.444446   4.514996
     C   1.717685   6.840553   6.729203
     C   4.453695   8.586947   1.107104
     C   2.194284   1.698054  10.137096
     C   3.704209   2.844831   4.263013
     C   2.943771   7.440169   6.981186
     C   5.679781   7.987331   1.359086
     C   0.968199   2.297669   9.885113
     C   3.526739   2.057000   3.153323
     C   3.121240   8.228000   8.090876
     C   5.857251   7.199500   2.468776
     C   0.790729   3.085500   8.775423
     C   4.571723   1.853460   2.273690
     C   2.076257   8.431540   8.970510
     C   4.812267   6.995960   3.348410
     C   1.835712   3.289040   7.895789
     C   5.780215   2.460378   2.496325
     C   0.867765   7.824622   8.747875
     C   3.603775   7.602878   3.125775
     C   3.044204   2.682122   8.118425
     C   5.998652   3.274744   3.612986
     C   0.649328   7.010256   7.631213
     C   3.385338   8.417244   2.009114
     C   3.262641   1.867756   9.235086
     C   7.279603   3.953760   3.877000
     C  -0.631623   6.331240   7.367200
     C   2.104387   9.096260   1.745100
     C   4.543593   1.188740   9.499100
     C   8.411791   3.761533   2.989271
     C  -1.763812   6.523467   8.254929
     C   0.972198   8.904033   2.632829
     C   5.675781   1.380967   8.611370
     C   9.571919   4.415351   3.170077
     C  -2.923940   5.869649   8.074123
     C  -0.187930   9.557850   2.452023
     C   6.835909   0.727149   8.792177
     C  10.798530   4.277429   2.421551
     C  -4.150550   6.007571   8.822649
     C  -1.414540   9.419928   3.200549
     C   8.062520   0.865071   8.043650
     C  10.971552   3.354864   1.383374
     C  -4.323572   6.930136   9.860826
     C  -1.587562   8.497364   4.238726
     C   8.235542   1.787636   7.005474
     C   0.040533   3.217765   0.724126
     C   6.607447   7.067235  10.520073
     C   9.343457   8.360265   4.897973
     C  -2.695477   1.924735   6.346226
     C   1.154116   4.023492   1.050883
     C   5.493864   6.261508  10.193316
     C   8.229874   9.165992   4.571217
     C  -1.581894   1.119008   6.672983
     C   0.986372   4.945131   2.096144
     C   5.661607   5.339869   9.148056
     C   8.397618  10.087631   3.525956
     C  -1.749638   0.197369   7.718243
     C  -0.215655   5.054049   2.748082
     C   6.863635   5.230951   8.496117
     C   9.599645  10.196549   2.874017
     C  -2.951666   0.088451   8.370182
     C  -2.980891   2.949327  10.550882
     C   9.628871   7.335674   0.693317
     C   6.892861   8.091826   6.315417
     C  -0.244881   2.193173   4.928782
     C   3.439900   4.809266   0.642044
     C   3.208080   5.475734  10.602156
     C   5.944090   9.951766   4.980056
     C   0.703889   0.333234   6.264143
     H   2.997075   2.977507   4.851872
     H   3.650904   7.307492   6.392328
     H   6.386915   8.120007   0.770228
     H   0.261065   2.164992  10.473971
     H   2.701720   1.659999   2.993206
     H   3.946259   8.625001   8.250993
     H   6.682269   6.802499   2.628894
     H  -0.034290   3.482501   8.615306
     H   4.455403   1.305167   1.531460
     H   2.192576   8.979833   9.712739
     H   4.928587   6.447667   4.090640
     H   1.719393   3.837333   7.153560
     H   6.472141   2.327495   1.890150
     H   0.175838   7.957504   9.354050
     H   2.911848   7.469995   3.731950
     H   3.736131   2.815004   7.512250
     H   8.332731   3.169837   2.275826
     H  -1.684752   7.115163   8.968374
     H   1.051258   8.312337   3.346274
     H   5.596721   1.972663   7.897925
     H   9.585999   5.033479   3.864631
     H  -2.938019   5.251521   7.379568
     H  -0.202009  10.175979   1.757468
     H   6.849988   0.109021   9.486731
     H  10.254065   2.818090   1.134540
     H  -3.606086   7.466910  10.109660
     H  -0.870076   7.960590   4.487560
     H   7.518055   2.324410   6.756639
     H   0.118275   2.583592   0.048350
     H   6.529705   7.701408  11.195849
     H   9.265715   7.726091   5.573750
     H  -2.617735   2.558908   5.670450
     H   1.697276   5.488076   2.350038
     H   4.950703   4.796924   8.894162
     H   7.686714   0.345576   3.272062
     H  -1.038734   9.939424   7.972137
     H  -0.293540   5.673206   3.437352
     H   6.941520   4.611794   7.806848
     H   9.677530   0.530706   2.184748
     H  -3.029550   9.754294   9.059452
     H  -3.136231   2.065228  10.890007
     H   9.784211   8.219772   0.354192
     H   7.048201   7.207728   5.976292
     H  -0.400221   3.077272   5.267907
     H  -2.088806   3.005277  10.199614
     H   8.736785   7.279723   1.044586
     H   6.000775   8.147777   6.666686
     H   0.647205   2.137223   4.577514
     H  -3.612219   3.140010   9.853292
     H  10.260199   7.144989   1.390907
     H   7.524189   8.282510   7.013007
     H  -0.876209   2.002489   4.231192
     H   3.148771   5.717431   0.532975
     H   3.499209   4.567569  10.711224
     H   6.235219   0.574931   5.089125
     H   0.412761   9.710069   6.155075
     H   4.153722   4.626193   0.026986
     H   2.494257   5.658807  11.217214
     H   5.230267   9.768693   5.595114
     H   1.417712   0.516307   5.649086
     H   3.749942   4.678646   1.541580
     H   2.898038   5.606353   9.702620
     H   5.634048   9.821147   4.080520
     H   1.013932   0.463854   7.163679
     H   5.787679   4.526429   5.662579
     H   0.860301   5.758571   5.581621
     H  -1.875709   9.668929  11.203720
     H   8.523689   0.616071   0.040479
     N   2.333488   3.912311   0.378255
     N   4.314492   6.372689  10.865944
     N   7.050502   9.054811   5.243845
     N  -0.402522   1.230189   6.000355
     O   5.046154   4.178384   5.638966
     O   1.601826   6.106616   5.605233
     O  -1.134185   9.320884  11.227333
     O   7.782164   0.964116   0.016866
     O   7.384367   4.688726   4.887291
     O  -0.736388   5.596274   6.356908
     O   1.999622   9.831226   0.734808
     O   4.648357   0.453774  10.509391
    &END COORD
    &KIND H
      BASIS_SET DZVP-GTH-PBE
      POTENTIAL GTH-PBE-q1
    &END KIND
    &KIND C
      BASIS_SET DZVP-GTH-PBE
      POTENTIAL GTH-PBE-q4
    &END KIND
  &END SUBSYS
  &DFT
    BASIS_SET_FILE_NAME /data/home/btx156/cp2k/BASIS_SET
    POTENTIAL_FILE_NAME /data/home/btx156/cp2k/POTENTIAL
    &QS
      EPS_DEFAULT 1.0E-7
    &END QS
    &MGRID
      CUTOFF 200
      NGRIDS 4
      REL_CUTOFF 30
    &END MGRID
      &SCF
      SCF_GUESS ATOMIC
      EPS_SCF 1.0E-05
      MAX_SCF 200
      &DIAGONALIZATION T
        ALGORITHM STANDARD
      &END DIAGONALIZATION
      &MIXING T
        ALPHA 0.5
        METHOD PULAY_MIXING
        NPULAY 5
      &END MIXING
      &PRINT
        &RESTART OFF
        &END RESTART
      &END PRINT
    &END SCF
     &XC
       DENSITY_CUTOFF     1.0000000000000000E-10
       GRADIENT_CUTOFF     1.0000000000000000E-10
       TAU_CUTOFF     1.0000000000000000E-10
       &XC_FUNCTIONAL  NO_SHORTCUT
         &PBE  T
         &END PBE
       &END XC_FUNCTIONAL
     &VDW_POTENTIAL
      DISPERSION_FUNCTIONAL PAIR_POTENTIAL
      &PAIR_POTENTIAL
      TYPE DFTD2
      REFERENCE_FUNCTIONAL PBE
     &END PAIR_POTENTIAL
     &END VDW_POTENTIAL
     &END XC
  &END DFT
&END FORCE_EVAL
&MOTION
  &GEO_OPT
    TYPE MINIMIZATION
     OPTIMIZER  BFGS
     MAX_ITER  600
     STEP_START_VAL  1
  &END GEO_OPT
  &CONSTRAINT
    &FIXED_ATOMS
      COMPONENTS_TO_FIX XYZ
      LIST 1
    &END FIXED_ATOMS
  &END CONSTRAINT
&END MOTION  
