48

C       0.8810882780      4.2138741176      3.8401245619
C       5.8372922251      3.0108104836      5.6177509701
C       2.4684446639      3.0381371430      8.5084410109
C       4.2801989963      4.1742253811      0.8542860035
C       5.8400898858      0.5480380092      0.9170661524
C       0.9466181007      6.6386553384      8.5125329146
C       4.2500636170      6.6529184152      5.6324724165
C       2.4371794601      0.5143503955      3.8095904949
C       0.8804292137      4.6024884392      5.1301465648
C       5.8390340379      2.6359285536      4.2904973476
C       2.5401683460      2.6368518006      0.4732968526
C       4.2447978277      4.6769079691      8.9798471219
C       5.8911606445      1.0342111948      9.0352054043
C       0.8478324311      6.2394418497      0.4361404864
C       4.2617653711      6.2664341047      4.2883055923
C       2.4640262429      1.0000365137      5.1271928688
C       0.0380038000      3.2112932222      3.3726786612
C       6.6935109132      4.0857535945      6.0592532612
C       3.3197405451      4.0469190601      8.0656311920
C       3.4126080862      3.1975608307      1.3292572442
C       6.6770410307      6.8412535487      1.3454273186
C       0.0556640334      0.3951424780      8.0615204750
C       3.4432680269      0.4057998025      6.0214102077
C       3.3754987306      6.8317084825      3.3822734697
H       1.5830253918      4.6411557713      3.1581500311
H       5.1386638832      2.5525309911      6.2652500370
H       1.7540122288      2.6235701282      7.8138333156
H       4.9840595018      4.6624195327      1.5999060974
H       5.1209700240      1.0107519955      1.6129249356
H       1.6095560928      6.2584665551      7.8344621538
H       4.9812954668      6.2183089422      6.2682601730
H       1.7392976094      1.0277775439      3.1469654945
H       1.5341403055      5.4657753410      5.4732550354
H       5.1354425382      1.8341793406      3.9165632030
H       1.8181028702      1.8333433294      0.7853444824
H       4.9182606733      5.4585783756      8.6162509131
H       5.1715027711      1.7644850910      8.6460982929
H       1.5234069725      5.5039265272      0.8272229995
H       4.9066799719      5.4674691722      3.9115024119
H       1.8566312317      1.7832262796      5.4708657400
H       0.0560675422      2.8708331418      2.3181998003
H       6.6558164699      4.3865503991      7.0368701806
H       3.3014481480      4.3820795570      7.0486379310
H       3.4160849867      2.8841220839      2.3687512718
H       6.6531802127      6.5158489382      2.3708771803
H       0.0455964899      0.7709258461      7.0215184870
H       3.4249352789      0.7621513641      7.0560974243
H       3.2843528269      6.5387919915      2.3460435583
