 Entering Gaussian System, Link 0=g16
 Input=dimer.com
 Output=dimer.log
 Initial command:
 /work/lopez//g16/l1.exe "/scratch/m.ingham/marcus/benzene/fro_test/pop/Gau-59820.inp" -scrdir="/scratch/m.ingham/marcus/benzene/fro_test/pop/"
 Entering Link 1 = /work/lopez//g16/l1.exe PID=     59821.
  
 Copyright (c) 1988-2017, Gaussian, Inc.  All Rights Reserved.
  
 This is part of the Gaussian(R) 16 program.  It is based on
 the Gaussian(R) 09 system (copyright 2009, Gaussian, Inc.),
 the Gaussian(R) 03 system (copyright 2003, Gaussian, Inc.),
 the Gaussian(R) 98 system (copyright 1998, Gaussian, Inc.),
 the Gaussian(R) 94 system (copyright 1995, Gaussian, Inc.),
 the Gaussian 92(TM) system (copyright 1992, Gaussian, Inc.),
 the Gaussian 90(TM) system (copyright 1990, Gaussian, Inc.),
 the Gaussian 88(TM) system (copyright 1988, Gaussian, Inc.),
 the Gaussian 86(TM) system (copyright 1986, Carnegie Mellon
 University), and the Gaussian 82(TM) system (copyright 1983,
 Carnegie Mellon University). Gaussian is a federally registered
 trademark of Gaussian, Inc.
  
 This software contains proprietary and confidential information,
 including trade secrets, belonging to Gaussian, Inc.
  
 This software is provided under written license and may be
 used, copied, transmitted, or stored only in accord with that
 written license.
  
 The following legend is applicable only to US Government
 contracts under FAR:
  
                    RESTRICTED RIGHTS LEGEND
  
 Use, reproduction and disclosure by the US Government is
 subject to restrictions as set forth in subparagraphs (a)
 and (c) of the Commercial Computer Software - Restricted
 Rights clause in FAR 52.227-19.
  
 Gaussian, Inc.
 340 Quinnipiac St., Bldg. 40, Wallingford CT 06492
  
  
 ---------------------------------------------------------------
 Warning -- This program may not be used in any manner that
 competes with the business of Gaussian, Inc. or will provide
 assistance to any competitor of Gaussian, Inc.  The licensee
 of this program is prohibited from giving any competitor of
 Gaussian, Inc. access to this program.  By using this program,
 the user acknowledges that Gaussian, Inc. is engaged in the
 business of creating and licensing software in the field of
 computational chemistry and represents and warrants to the
 licensee that it is not a competitor of Gaussian, Inc. and that
 it will not use this program in any manner prohibited above.
 ---------------------------------------------------------------
  

 Cite this work as:
 Gaussian 16, Revision B.01,
 M. J. Frisch, G. W. Trucks, H. B. Schlegel, G. E. Scuseria, 
 M. A. Robb, J. R. Cheeseman, G. Scalmani, V. Barone, 
 G. A. Petersson, H. Nakatsuji, X. Li, M. Caricato, A. V. Marenich, 
 J. Bloino, B. G. Janesko, R. Gomperts, B. Mennucci, H. P. Hratchian, 
 J. V. Ortiz, A. F. Izmaylov, J. L. Sonnenberg, D. Williams-Young, 
 F. Ding, F. Lipparini, F. Egidi, J. Goings, B. Peng, A. Petrone, 
 T. Henderson, D. Ranasinghe, V. G. Zakrzewski, J. Gao, N. Rega, 
 G. Zheng, W. Liang, M. Hada, M. Ehara, K. Toyota, R. Fukuda, 
 J. Hasegawa, M. Ishida, T. Nakajima, Y. Honda, O. Kitao, H. Nakai, 
 T. Vreven, K. Throssell, J. A. Montgomery, Jr., J. E. Peralta, 
 F. Ogliaro, M. J. Bearpark, J. J. Heyd, E. N. Brothers, K. N. Kudin, 
 V. N. Staroverov, T. A. Keith, R. Kobayashi, J. Normand, 
 K. Raghavachari, A. P. Rendell, J. C. Burant, S. S. Iyengar, 
 J. Tomasi, M. Cossi, J. M. Millam, M. Klene, C. Adamo, R. Cammi, 
 J. W. Ochterski, R. L. Martin, K. Morokuma, O. Farkas, 
 J. B. Foresman, and D. J. Fox, Gaussian, Inc., Wallingford CT, 2016.
 
 ******************************************
 Gaussian 16:  ES64L-G16RevB.01 20-Dec-2017
                17-Nov-2025 
 ******************************************
 %nproc=20
 Will use up to   20 processors via shared memory.
 %mem=40GB
 %chk=geomxxx_i_xxx.chk
 -----------------------------------
 #p cam-b3lyp cc-pvdz nosymm pop=ESP
 -----------------------------------
 1/38=1,172=1/1;
 2/12=2,15=1,17=6,18=5,40=1/2;
 3/5=16,11=2,25=1,30=1,74=-40/1,2,3;
 4//1;
 5/5=2,38=5/2;
 6/7=2,8=2,9=2,10=2,15=8,28=1/1,2;
 99/5=1,9=1/99;
 Leave Link    1 at Mon Nov 17 09:21:06 2025, MaxMem=  5368709120 cpu:               1.8 elap:               0.1
 (Enter /work/lopez//g16/l101.exe)
 --------------
 benzne smaples
 --------------
 Symbolic Z-matrix:
 Charge =  0 Multiplicity = 1
 C                    -0.80002   2.40712  -0.8657 
 C                     0.78292  -0.80672   0.42137 
 C                    -0.80068   2.79573   0.42433 
 C                    -1.64311   1.40454  -1.33314 
 H                    -0.09808   2.8344   -1.54767 
 C                     0.75607  -1.29241  -0.89623 
 C                     1.76216  -1.40096   1.31559 
 H                     0.17552  -0.02353   0.76504 
 C                    -1.71275   2.279     1.35343 
 H                    -0.14697   3.65902   0.76743 
 C                    -2.56722   0.82917  -0.41532 
 H                    -1.62504   1.06408  -2.38762 
 C                     1.69439  -2.24471  -1.32355 
 H                     0.05819  -0.77898  -1.55886 
 C                     2.56895  -2.4235    0.92665 
 H                     1.74383  -1.04461   2.35028 
 C                    -2.56896   1.20405   0.91193 
 H                    -1.75044   2.57979   2.33105 
 H                    -3.27081   0.02742  -0.78926 
 C                     2.58066  -2.80999  -0.41752 
 H                     1.60324  -2.53763  -2.35978 
 H                     3.30019  -2.85811   1.56244 
 H                    -3.26759   0.74577   1.55943 
 H                     3.22557  -3.60895  -0.79432 
 
 ITRead=  0  0  0  0  0  0  0  0  0  0  0  0  0  0  0  0  0  0  0  0
 ITRead=  0  0  0  0
 MicOpt= -1 -1 -1 -1 -1 -1 -1 -1 -1 -1 -1 -1 -1 -1 -1 -1 -1 -1 -1 -1
 MicOpt= -1 -1 -1 -1
 NAtoms=     24 NQM=       24 NQMF=       0 NMMI=      0 NMMIF=      0
                NMic=       0 NMicF=      0.
                    Isotopes and Nuclear Properties:
 (Nuclear quadrupole moments (NQMom) in fm**2, nuclear magnetic moments (NMagM)
  in nuclear magnetons)

  Atom         1           2           3           4           5           6           7           8           9          10
 IAtWgt=          12          12          12          12           1          12          12           1          12           1
 AtmWgt=  12.0000000  12.0000000  12.0000000  12.0000000   1.0078250  12.0000000  12.0000000   1.0078250  12.0000000   1.0078250
 NucSpn=           0           0           0           0           1           0           0           1           0           1
 AtZEff=  -0.0000000  -0.0000000  -0.0000000  -0.0000000  -0.0000000  -0.0000000  -0.0000000  -0.0000000  -0.0000000  -0.0000000
 NQMom=    0.0000000   0.0000000   0.0000000   0.0000000   0.0000000   0.0000000   0.0000000   0.0000000   0.0000000   0.0000000
 NMagM=    0.0000000   0.0000000   0.0000000   0.0000000   2.7928460   0.0000000   0.0000000   2.7928460   0.0000000   2.7928460
 AtZNuc=   6.0000000   6.0000000   6.0000000   6.0000000   1.0000000   6.0000000   6.0000000   1.0000000   6.0000000   1.0000000

  Atom        11          12          13          14          15          16          17          18          19          20
 IAtWgt=          12           1          12           1          12           1          12           1           1          12
 AtmWgt=  12.0000000   1.0078250  12.0000000   1.0078250  12.0000000   1.0078250  12.0000000   1.0078250   1.0078250  12.0000000
 NucSpn=           0           1           0           1           0           1           0           1           1           0
 AtZEff=  -0.0000000  -0.0000000  -0.0000000  -0.0000000  -0.0000000  -0.0000000  -0.0000000  -0.0000000  -0.0000000  -0.0000000
 NQMom=    0.0000000   0.0000000   0.0000000   0.0000000   0.0000000   0.0000000   0.0000000   0.0000000   0.0000000   0.0000000
 NMagM=    0.0000000   2.7928460   0.0000000   2.7928460   0.0000000   2.7928460   0.0000000   2.7928460   2.7928460   0.0000000
 AtZNuc=   6.0000000   1.0000000   6.0000000   1.0000000   6.0000000   1.0000000   6.0000000   1.0000000   1.0000000   6.0000000

  Atom        21          22          23          24
 IAtWgt=           1           1           1           1
 AtmWgt=   1.0078250   1.0078250   1.0078250   1.0078250
 NucSpn=           1           1           1           1
 AtZEff=  -0.0000000  -0.0000000  -0.0000000  -0.0000000
 NQMom=    0.0000000   0.0000000   0.0000000   0.0000000
 NMagM=    2.7928460   2.7928460   2.7928460   2.7928460
 AtZNuc=   1.0000000   1.0000000   1.0000000   1.0000000
 Leave Link  101 at Mon Nov 17 09:21:07 2025, MaxMem=  5368709120 cpu:               2.1 elap:               0.2
 (Enter /work/lopez//g16/l202.exe)
                          Input orientation:                          
 ---------------------------------------------------------------------
 Center     Atomic      Atomic             Coordinates (Angstroms)
 Number     Number       Type             X           Y           Z
 ---------------------------------------------------------------------
      1          6           0       -0.800021    2.407117   -0.865697
      2          6           0        0.782917   -0.806721    0.421371
      3          6           0       -0.800680    2.795731    0.424325
      4          6           0       -1.643106    1.404536   -1.333143
      5          1           0       -0.098084    2.834399   -1.547672
      6          6           0        0.756070   -1.292407   -0.896231
      7          6           0        1.762158   -1.400957    1.315589
      8          1           0        0.175522   -0.023531    0.765044
      9          6           0       -1.712745    2.278996    1.353432
     10          1           0       -0.146969    3.659018    0.767433
     11          6           0       -2.567222    0.829171   -0.415324
     12          1           0       -1.625042    1.064076   -2.387622
     13          6           0        1.694389   -2.244711   -1.323548
     14          1           0        0.058188   -0.778980   -1.558856
     15          6           0        2.568954   -2.423501    0.926651
     16          1           0        1.743826   -1.044606    2.350276
     17          6           0       -2.568963    1.204053    0.911929
     18          1           0       -1.750439    2.579793    2.331049
     19          1           0       -3.270813    0.027422   -0.789258
     20          6           0        2.580656   -2.809985   -0.417516
     21          1           0        1.603243   -2.537627   -2.359778
     22          1           0        3.300186   -2.858110    1.562439
     23          1           0       -3.267592    0.745774    1.559428
     24          1           0        3.225570   -3.608950   -0.794319
 ---------------------------------------------------------------------
                    Distance matrix (angstroms):
                    1          2          3          4          5
     1  C    0.000000
     2  C    3.806703   0.000000
     3  C    1.347285   3.935155   0.000000
     4  C    1.390851   3.722038   2.394535   0.000000
     5  H    1.067884   4.232145   2.093779   2.116040   0.000000
     6  C    4.013581   1.404524   4.569487   3.635992   4.264327
     7  C    5.081751   1.453154   4.997467   5.146105   5.440313
     8  H    3.085296   1.049012   3.002882   3.122366   3.686635
     9  C    2.402918   4.076606   1.400756   2.826166   3.366305
    10  H    2.158899   4.574634   1.135925   3.425425   2.458068
    11  C    2.411586   3.820947   2.773633   1.423877   3.376358
    12  H    2.191044   4.145912   3.403711   1.108226   2.484182
    13  C    5.298227   2.437896   5.889523   4.945298   5.390784
    14  H    3.371677   2.108862   4.177226   2.777245   3.616774
    15  C    6.156084   2.461547   6.232748   6.123886   6.393816
    16  H    5.359854   2.168089   4.993194   5.571102   5.799423
    17  C    2.781452   3.939411   2.428584   2.436750   3.848754
    18  H    3.339505   4.640392   2.141090   3.849552   4.223692
    19  H    3.431269   4.312093   3.903572   2.200383   4.303547
    20  C    6.232816   2.819337   6.600468   6.036615   6.349171
    21  H    5.697232   3.376945   6.478795   5.208974   5.693215
    22  H    7.101419   3.441929   7.076604   7.140776   7.322956
    23  H    3.837994   4.484645   3.402416   3.382291   4.905324
    24  H    7.239029   3.911131   7.662618   7.009235   7.289099
                    6          7          8          9         10
     6  C    0.000000
     7  C    2.432312   0.000000
     8  H    2.169543   2.172053   0.000000
     9  C    4.889882   5.061466   3.035356   0.000000
    10  H    5.300931   5.435861   3.696644   2.167835   0.000000
    11  C    3.971981   5.168468   3.105320   2.441438   3.906990
    12  H    3.667009   5.591358   3.790016   3.934362   4.344283
    13  C    1.403540   2.771562   3.406290   6.264081   6.528156
    14  H    1.090742   3.398941   2.446422   4.579175   5.014931
    15  C    2.808704   1.359334   3.393301   6.374054   6.663229
    16  H    3.402481   1.094486   2.452577   4.897746   5.310798
    17  C    4.534049   5.070269   3.010106   1.443446   3.451635
    18  H    5.629552   5.405170   3.597081   1.023540   2.486109
    19  H    4.239007   5.639277   3.780962   3.476821   5.036882
    20  C    2.421017   2.378855   3.866192   6.889650   7.119834
    21  H    2.100058   3.850402   4.257180   6.927017   7.158289
    22  H    3.868981   2.133017   4.293507   7.180739   7.415381
    23  H    5.135591   5.474148   3.616339   2.193343   4.341951
    24  H    3.387505   3.386520   4.958794   7.979204   8.163115
                   11         12         13         14         15
    11  C    0.000000
    12  H    2.198373   0.000000
    13  C    5.332443   4.806136   0.000000
    14  H    3.284295   2.630014   2.209274   0.000000
    15  C    6.225839   6.382570   2.420790   3.896940   0.000000
    16  H    5.453872   6.184132   3.865188   4.265354   2.146834
    17  C    1.379181   3.434766   5.921782   4.115716   6.289480
    18  H    3.357734   4.957719   6.964105   5.448289   6.757399
    19  H    1.130340   2.517535   5.486464   3.510671   6.561573
    20  C    6.304293   6.047939   1.387767   3.433727   1.398675
    21  H    5.701667   4.836824   1.080685   2.474169   3.427279
    22  H    7.206529   7.432657   3.359131   4.957400   1.061985
    23  H    2.096931   4.287014   6.471152   4.807222   6.671580
    24  H    7.307325   6.921288   2.117958   4.315734   2.190473
                   16         17         18         19         20
    16  H    0.000000
    17  C    5.072027   0.000000
    18  H    5.034533   2.139286   0.000000
    19  H    6.012697   2.184283   4.308416   0.000000
    20  C    3.387849   6.663220   7.440612   6.513736   0.000000
    21  H    4.943024   6.489340   7.709671   5.727341   2.191323
    22  H    2.516295   7.167373   7.461257   7.552139   2.107193
    23  H    5.380075   1.057051   2.502155   2.456088   7.124166
    24  H    4.319711   7.723529   8.533999   7.444879   1.093727
                   21         22         23         24
    21  H    0.000000
    22  H    4.285570   0.000000
    23  H    7.061581   7.491575   0.000000
    24  H    2.496065   2.474598   8.164858   0.000000
 Symmetry turned off by external request.
 Stoichiometry    C12H12
 Framework group  C1[X(C12H12)]
 Deg. of freedom    66
 Full point group                 C1      NOp   1
 Rotational constants (GHZ):           1.9355589           0.4403452           0.4108195
 Leave Link  202 at Mon Nov 17 09:21:07 2025, MaxMem=  5368709120 cpu:               1.6 elap:               0.2
 (Enter /work/lopez//g16/l301.exe)
 Standard basis: CC-pVDZ (5D, 7F)
 Ernie: Thresh=  0.10000D-02 Tol=  0.10000D-05 Strict=F.
 Ernie:  24 primitive shells out of 324 were deleted.
   228 basis functions,   480 primitive gaussians,   240 cartesian basis functions
    42 alpha electrons       42 beta electrons
       nuclear repulsion energy       589.8309285988 Hartrees.
 IExCor=20419 DFT=T Ex+Corr=CAM-B3LYP ExCW=0 ScaHFX=  1.000000
 ScaDFX=  1.000000  1.000000  1.000000  0.810000 ScalE2=  1.000000  1.000000
 IRadAn=      5 IRanWt=     -1 IRanGd=            0 ICorTp=0 IEmpDi=  4
 HFx  wShort=  0.000000 wLong=  0.330000 cFull=  0.190000 cShort=  0.000000 cLong=  0.460000
 DFx  wShort=  0.000000 wLong=  0.330000 cFull=  0.190000 cShort=  0.000000 cLong=  0.460000
 NAtoms=   24 NActive=   24 NUniq=   24 SFac= 1.00D+00 NAtFMM=   60 NAOKFM=F Big=F
 Integral buffers will be    131072 words long.
 Raffenetti 2 integral format.
 Two-electron integral symmetry is turned off.
 Leave Link  301 at Mon Nov 17 09:21:07 2025, MaxMem=  5368709120 cpu:               1.3 elap:               0.1
 (Enter /work/lopez//g16/l302.exe)
 NPDir=0 NMtPBC=     1 NCelOv=     1 NCel=       1 NClECP=     1 NCelD=      1
         NCelK=      1 NCelE2=     1 NClLst=     1 CellRange=     0.0.
 One-electron integrals computed using PRISM.
 NBasis=   228 RedAO= T EigKep=  3.98D-04  NBF=   228
 NBsUse=   228 1.00D-06 EigRej= -1.00D+00 NBFU=   228
 Precomputing XC quadrature grid using
 IXCGrd= 4 IRadAn=           5 IRanWt=          -1 IRanGd=           0 AccXCQ= 0.00D+00.
 Generated NRdTot=       0 NPtTot=           0 NUsed=           0 NTot=          32
 NSgBfM=   240   240   240   240   240 MxSgAt=    24 MxSgA2=    24.
 Leave Link  302 at Mon Nov 17 09:21:08 2025, MaxMem=  5368709120 cpu:              10.6 elap:               0.6
 (Enter /work/lopez//g16/l303.exe)
 DipDrv:  MaxL=1.
 Leave Link  303 at Mon Nov 17 09:21:08 2025, MaxMem=  5368709120 cpu:               2.3 elap:               0.1
 (Enter /work/lopez//g16/l401.exe)
 ExpMin= 1.22D-01 ExpMax= 6.67D+03 ExpMxC= 2.28D+02 IAcc=3 IRadAn=         5 AccDes= 0.00D+00
 Harris functional with IExCor=20419 and IRadAn=       5 diagonalized for initial guess.
 HarFok:  IExCor=20419 AccDes= 0.00D+00 IRadAn=         5 IDoV= 1 UseB2=F ITyADJ=14
 ICtDFT=  3500011 ScaDFX=  1.000000  1.000000  1.000000  1.000000
 FoFCou: FMM=F IPFlag=           0 FMFlag=      100000 FMFlg1=           0
         NFxFlg=           0 DoJE=T BraDBF=F KetDBF=T FulRan=T
         wScrn=  0.000000 ICntrl=       500 IOpCl=  0 I1Cent=   200000004 NGrid=           0
         NMat0=    1 NMatS0=      1 NMatT0=    0 NMatD0=    1 NMtDS0=    0 NMtDT0=    0
 Symmetry not used in FoFCou.
 Harris En= -444.830774153184    
 JPrj=0 DoOrth=F DoCkMO=F.
 Leave Link  401 at Mon Nov 17 09:21:09 2025, MaxMem=  5368709120 cpu:              18.7 elap:               1.1
 (Enter /work/lopez//g16/l502.exe)
 Two-electron integral symmetry not used.
 Closed shell SCF:
 Using DIIS extrapolation, IDIIS=  1040.
 NGot=  5368709120 LenX=  5368587058 LenY=  5368529017
 Requested convergence on RMS density matrix=1.00D-08 within 128 cycles.
 Requested convergence on MAX density matrix=1.00D-06.
 Requested convergence on             energy=1.00D-06.
 No special actions if energy rises.
 Fock matrices will be formed incrementally for  20 cycles.
 Integral accuracy reduced to 1.0D-05 until final iterations.

 Cycle   1  Pass 0  IDiag  1:
 FoFJK:  IHMeth= 1 ICntrl=       0 DoSepK=T KAlg= 0 I1Cent=           0 FoldK=F
 IRaf=         1 NMat=       1 IRICut=       1 DoRegI=T DoRafI=F ISym2E= 0 IDoP0=0 IntGTp=1.
 FoFCou: FMM=F IPFlag=           0 FMFlag=      100000 FMFlg1=           0
         NFxFlg=           0 DoJE=T BraDBF=F KetDBF=F FulRan=T
         wScrn=  0.000000 ICntrl=       500 IOpCl=  0 I1Cent=           0 NGrid=           0
         NMat0=    1 NMatS0=      1 NMatT0=    0 NMatD0=    1 NMtDS0=    0 NMtDT0=    0
 Symmetry not used in FoFCou.
 E= -464.155432715883    
 DIIS: error= 2.45D-02 at cycle   1 NSaved=   1.
 NSaved= 1 IEnMin= 1 EnMin= -464.155432715883     IErMin= 1 ErrMin= 2.45D-02
 ErrMax= 2.45D-02  0.00D+00 EMaxC= 1.00D-01 BMatC= 1.16D-01 BMatP= 1.16D-01
 IDIUse=3 WtCom= 7.55D-01 WtEn= 2.45D-01
 Coeff-Com:  0.100D+01
 Coeff-En:   0.100D+01
 Coeff:      0.100D+01
 Gap=     0.318 Goal=   None    Shift=    0.000
 GapD=    0.318 DampG=1.000 DampE=0.500 DampFc=0.5000 IDamp=-1.
 Damping current iteration by 5.00D-01
 RMSDP=1.94D-03 MaxDP=3.42D-02              OVMax= 5.61D-02

 Cycle   2  Pass 0  IDiag  1:
 RMSU=  9.44D-04    CP:  9.89D-01
 E= -464.185073795249     Delta-E=       -0.029641079365 Rises=F Damp=T
 DIIS: error= 1.28D-02 at cycle   2 NSaved=   2.
 NSaved= 2 IEnMin= 2 EnMin= -464.185073795249     IErMin= 2 ErrMin= 1.28D-02
 ErrMax= 1.28D-02  0.00D+00 EMaxC= 1.00D-01 BMatC= 2.49D-02 BMatP= 1.16D-01
 IDIUse=3 WtCom= 8.72D-01 WtEn= 1.28D-01
 Coeff-Com: -0.539D+00 0.154D+01
 Coeff-En:   0.000D+00 0.100D+01
 Coeff:     -0.470D+00 0.147D+01
 Gap=     0.324 Goal=   None    Shift=    0.000
 RMSDP=9.34D-04 MaxDP=1.10D-02 DE=-2.96D-02 OVMax= 2.93D-02

 Cycle   3  Pass 0  IDiag  1:
 RMSU=  8.00D-04    CP:  9.81D-01  1.48D+00
 E= -464.210043502816     Delta-E=       -0.024969707568 Rises=F Damp=F
 DIIS: error= 3.45D-03 at cycle   3 NSaved=   3.
 NSaved= 3 IEnMin= 3 EnMin= -464.210043502816     IErMin= 3 ErrMin= 3.45D-03
 ErrMax= 3.45D-03  0.00D+00 EMaxC= 1.00D-01 BMatC= 3.22D-03 BMatP= 2.49D-02
 IDIUse=3 WtCom= 9.65D-01 WtEn= 3.45D-02
 Coeff-Com: -0.278D+00 0.548D+00 0.730D+00
 Coeff-En:   0.000D+00 0.000D+00 0.100D+01
 Coeff:     -0.269D+00 0.529D+00 0.739D+00
 Gap=     0.321 Goal=   None    Shift=    0.000
 RMSDP=2.57D-04 MaxDP=8.61D-03 DE=-2.50D-02 OVMax= 1.30D-02

 Cycle   4  Pass 0  IDiag  1:
 RMSU=  1.09D-04    CP:  9.79D-01  1.67D+00  8.16D-01
 E= -464.213293613520     Delta-E=       -0.003250110703 Rises=F Damp=F
 DIIS: error= 8.97D-04 at cycle   4 NSaved=   4.
 NSaved= 4 IEnMin= 4 EnMin= -464.213293613520     IErMin= 4 ErrMin= 8.97D-04
 ErrMax= 8.97D-04  0.00D+00 EMaxC= 1.00D-01 BMatC= 1.30D-04 BMatP= 3.22D-03
 IDIUse=3 WtCom= 9.91D-01 WtEn= 8.97D-03
 Coeff-Com: -0.130D+00 0.253D+00 0.367D+00 0.510D+00
 Coeff-En:   0.000D+00 0.000D+00 0.000D+00 0.100D+01
 Coeff:     -0.129D+00 0.251D+00 0.364D+00 0.515D+00
 Gap=     0.321 Goal=   None    Shift=    0.000
 RMSDP=5.34D-05 MaxDP=1.72D-03 DE=-3.25D-03 OVMax= 4.55D-03

 Cycle   5  Pass 0  IDiag  1:
 RMSU=  3.42D-05    CP:  9.79D-01  1.67D+00  8.33D-01  6.47D-01
 E= -464.213431774937     Delta-E=       -0.000138161417 Rises=F Damp=F
 DIIS: error= 1.69D-04 at cycle   5 NSaved=   5.
 NSaved= 5 IEnMin= 5 EnMin= -464.213431774937     IErMin= 5 ErrMin= 1.69D-04
 ErrMax= 1.69D-04  0.00D+00 EMaxC= 1.00D-01 BMatC= 4.66D-06 BMatP= 1.30D-04
 IDIUse=3 WtCom= 9.98D-01 WtEn= 1.69D-03
 Coeff-Com: -0.148D-01 0.279D-01 0.440D-01 0.173D+00 0.770D+00
 Coeff-En:   0.000D+00 0.000D+00 0.000D+00 0.000D+00 0.100D+01
 Coeff:     -0.148D-01 0.279D-01 0.439D-01 0.173D+00 0.770D+00
 Gap=     0.321 Goal=   None    Shift=    0.000
 RMSDP=1.38D-05 MaxDP=3.02D-04 DE=-1.38D-04 OVMax= 8.64D-04

 Cycle   6  Pass 0  IDiag  1:
 RMSU=  7.60D-06    CP:  9.79D-01  1.67D+00  8.40D-01  7.28D-01  9.48D-01
 E= -464.213436854423     Delta-E=       -0.000005079487 Rises=F Damp=F
 DIIS: error= 3.49D-05 at cycle   6 NSaved=   6.
 NSaved= 6 IEnMin= 6 EnMin= -464.213436854423     IErMin= 6 ErrMin= 3.49D-05
 ErrMax= 3.49D-05  0.00D+00 EMaxC= 1.00D-01 BMatC= 2.83D-07 BMatP= 4.66D-06
 IDIUse=1 WtCom= 1.00D+00 WtEn= 0.00D+00
 Coeff-Com:  0.536D-02-0.107D-01-0.141D-01 0.101D-01 0.215D+00 0.794D+00
 Coeff:      0.536D-02-0.107D-01-0.141D-01 0.101D-01 0.215D+00 0.794D+00
 Gap=     0.321 Goal=   None    Shift=    0.000
 RMSDP=3.77D-06 MaxDP=1.05D-04 DE=-5.08D-06 OVMax= 1.96D-04

 Initial convergence to 1.0D-05 achieved.  Increase integral accuracy.
 Cycle   7  Pass 1  IDiag  1:
 E= -464.213450546752     Delta-E=       -0.000013692328 Rises=F Damp=F
 DIIS: error= 8.39D-05 at cycle   1 NSaved=   1.
 NSaved= 1 IEnMin= 1 EnMin= -464.213450546752     IErMin= 1 ErrMin= 8.39D-05
 ErrMax= 8.39D-05  0.00D+00 EMaxC= 1.00D-01 BMatC= 4.90D-07 BMatP= 4.90D-07
 IDIUse=1 WtCom= 1.00D+00 WtEn= 0.00D+00
 Coeff-Com:  0.100D+01
 Coeff:      0.100D+01
 Gap=     0.321 Goal=   None    Shift=    0.000
 RMSDP=3.77D-06 MaxDP=1.05D-04 DE=-1.37D-05 OVMax= 2.30D-04

 Cycle   8  Pass 1  IDiag  1:
 RMSU=  4.71D-05    CP:  1.00D+00
 E= -464.213450913709     Delta-E=       -0.000000366957 Rises=F Damp=F
 DIIS: error= 2.07D-05 at cycle   2 NSaved=   2.
 NSaved= 2 IEnMin= 2 EnMin= -464.213450913709     IErMin= 2 ErrMin= 2.07D-05
 ErrMax= 2.07D-05  0.00D+00 EMaxC= 1.00D-01 BMatC= 8.70D-08 BMatP= 4.90D-07
 IDIUse=1 WtCom= 1.00D+00 WtEn= 0.00D+00
 Coeff-Com:  0.212D+00 0.788D+00
 Coeff:      0.212D+00 0.788D+00
 Gap=     0.321 Goal=   None    Shift=    0.000
 RMSDP=2.34D-06 MaxDP=8.03D-05 DE=-3.67D-07 OVMax= 1.36D-04

 Cycle   9  Pass 1  IDiag  1:
 RMSU=  1.92D-06    CP:  1.00D+00  1.03D+00
 E= -464.213450956621     Delta-E=       -0.000000042912 Rises=F Damp=F
 DIIS: error= 1.40D-05 at cycle   3 NSaved=   3.
 NSaved= 3 IEnMin= 3 EnMin= -464.213450956621     IErMin= 3 ErrMin= 1.40D-05
 ErrMax= 1.40D-05  0.00D+00 EMaxC= 1.00D-01 BMatC= 4.52D-08 BMatP= 8.70D-08
 IDIUse=1 WtCom= 1.00D+00 WtEn= 0.00D+00
 Coeff-Com: -0.126D-01 0.417D+00 0.595D+00
 Coeff:     -0.126D-01 0.417D+00 0.595D+00
 Gap=     0.321 Goal=   None    Shift=    0.000
 RMSDP=9.51D-07 MaxDP=3.63D-05 DE=-4.29D-08 OVMax= 6.93D-05

 Cycle  10  Pass 1  IDiag  1:
 RMSU=  3.27D-07    CP:  1.00D+00  1.04D+00  6.01D-01
 E= -464.213451003383     Delta-E=       -0.000000046763 Rises=F Damp=F
 DIIS: error= 2.27D-06 at cycle   4 NSaved=   4.
 NSaved= 4 IEnMin= 4 EnMin= -464.213451003383     IErMin= 4 ErrMin= 2.27D-06
 ErrMax= 2.27D-06  0.00D+00 EMaxC= 1.00D-01 BMatC= 7.67D-10 BMatP= 4.52D-08
 IDIUse=1 WtCom= 1.00D+00 WtEn= 0.00D+00
 Coeff-Com: -0.895D-02 0.206D+00 0.307D+00 0.496D+00
 Coeff:     -0.895D-02 0.206D+00 0.307D+00 0.496D+00
 Gap=     0.321 Goal=   None    Shift=    0.000
 RMSDP=1.26D-07 MaxDP=4.80D-06 DE=-4.68D-08 OVMax= 1.01D-05

 Cycle  11  Pass 1  IDiag  1:
 RMSU=  1.10D-07    CP:  1.00D+00  1.04D+00  6.23D-01  8.80D-01
 E= -464.213451004298     Delta-E=       -0.000000000915 Rises=F Damp=F
 DIIS: error= 6.95D-07 at cycle   5 NSaved=   5.
 NSaved= 5 IEnMin= 5 EnMin= -464.213451004298     IErMin= 5 ErrMin= 6.95D-07
 ErrMax= 6.95D-07  0.00D+00 EMaxC= 1.00D-01 BMatC= 2.91D-11 BMatP= 7.67D-10
 IDIUse=1 WtCom= 1.00D+00 WtEn= 0.00D+00
 Coeff-Com:  0.198D-02-0.666D-01-0.946D-01-0.675D-02 0.117D+01
 Coeff:      0.198D-02-0.666D-01-0.946D-01-0.675D-02 0.117D+01
 Gap=     0.321 Goal=   None    Shift=    0.000
 RMSDP=7.53D-08 MaxDP=1.31D-06 DE=-9.15D-10 OVMax= 9.95D-06

 Cycle  12  Pass 1  IDiag  1:
 RMSU=  4.66D-08    CP:  1.00D+00  1.04D+00  6.26D-01  1.03D+00  1.26D+00
 E= -464.213451004462     Delta-E=       -0.000000000164 Rises=F Damp=F
 DIIS: error= 2.90D-07 at cycle   6 NSaved=   6.
 NSaved= 6 IEnMin= 6 EnMin= -464.213451004462     IErMin= 6 ErrMin= 2.90D-07
 ErrMax= 2.90D-07  0.00D+00 EMaxC= 1.00D-01 BMatC= 4.70D-12 BMatP= 2.91D-11
 IDIUse=1 WtCom= 1.00D+00 WtEn= 0.00D+00
 Coeff-Com:  0.168D-02-0.431D-01-0.632D-01-0.721D-01 0.274D+00 0.903D+00
 Coeff:      0.168D-02-0.431D-01-0.632D-01-0.721D-01 0.274D+00 0.903D+00
 Gap=     0.321 Goal=   None    Shift=    0.000
 RMSDP=2.80D-08 MaxDP=4.88D-07 DE=-1.64D-10 OVMax= 3.65D-06

 Cycle  13  Pass 1  IDiag  1:
 RMSU=  1.24D-08    CP:  1.00D+00  1.04D+00  6.28D-01  1.07D+00  1.40D+00
                    CP:  1.33D+00
 E= -464.213451004482     Delta-E=       -0.000000000020 Rises=F Damp=F
 DIIS: error= 6.88D-08 at cycle   7 NSaved=   7.
 NSaved= 7 IEnMin= 7 EnMin= -464.213451004482     IErMin= 7 ErrMin= 6.88D-08
 ErrMax= 6.88D-08  0.00D+00 EMaxC= 1.00D-01 BMatC= 7.68D-13 BMatP= 4.70D-12
 IDIUse=1 WtCom= 1.00D+00 WtEn= 0.00D+00
 Coeff-Com:  0.351D-03-0.703D-02-0.107D-01-0.257D-01-0.602D-01 0.303D+00
 Coeff-Com:  0.801D+00
 Coeff:      0.351D-03-0.703D-02-0.107D-01-0.257D-01-0.602D-01 0.303D+00
 Coeff:      0.801D+00
 Gap=     0.321 Goal=   None    Shift=    0.000
 RMSDP=9.12D-09 MaxDP=1.44D-07 DE=-1.98D-11 OVMax= 1.15D-06

 SCF Done:  E(RCAM-B3LYP) =  -464.213451004     A.U. after   13 cycles
            NFock= 13  Conv=0.91D-08     -V/T= 2.0069
 KE= 4.610402857621D+02 PE=-2.255106352438D+03 EE= 7.400216870721D+02
 Leave Link  502 at Mon Nov 17 09:21:26 2025, MaxMem=  5368709120 cpu:             327.9 elap:              16.9
 (Enter /work/lopez//g16/l601.exe)
 Copying SCF densities to generalized density rwf, IOpCl= 0 IROHF=0.

 **********************************************************************

            Population analysis using the SCF Density.

 **********************************************************************

 Alpha  occ. eigenvalues --  -10.27235 -10.27195 -10.26857 -10.26811 -10.26773
 Alpha  occ. eigenvalues --  -10.26159 -10.25788 -10.25753 -10.25597 -10.25539
 Alpha  occ. eigenvalues --  -10.25451 -10.25313  -0.94225  -0.92780  -0.83513
 Alpha  occ. eigenvalues --   -0.82665  -0.82206  -0.81378  -0.69035  -0.67258
 Alpha  occ. eigenvalues --   -0.67240  -0.66692  -0.59805  -0.58734  -0.53590
 Alpha  occ. eigenvalues --   -0.52645  -0.51763  -0.50333  -0.49359  -0.48535
 Alpha  occ. eigenvalues --   -0.48338  -0.47627  -0.43832  -0.42736  -0.41999
 Alpha  occ. eigenvalues --   -0.40331  -0.39662  -0.38833  -0.31844  -0.30649
 Alpha  occ. eigenvalues --   -0.30322  -0.29387
 Alpha virt. eigenvalues --    0.02739   0.04309   0.04401   0.05377   0.09568
 Alpha virt. eigenvalues --    0.11752   0.13344   0.13981   0.15543   0.16212
 Alpha virt. eigenvalues --    0.17673   0.17773   0.18936   0.19596   0.19690
 Alpha virt. eigenvalues --    0.21508   0.21833   0.23021   0.31858   0.32495
 Alpha virt. eigenvalues --    0.33005   0.33807   0.34000   0.35158   0.35910
 Alpha virt. eigenvalues --    0.36704   0.45154   0.45396   0.45802   0.48064
 Alpha virt. eigenvalues --    0.50980   0.51184   0.52386   0.54264   0.54543
 Alpha virt. eigenvalues --    0.55182   0.56212   0.56618   0.57518   0.57663
 Alpha virt. eigenvalues --    0.58434   0.58542   0.58838   0.59396   0.60018
 Alpha virt. eigenvalues --    0.60235   0.60951   0.61339   0.63401   0.63642
 Alpha virt. eigenvalues --    0.66235   0.67186   0.68755   0.69187   0.69753
 Alpha virt. eigenvalues --    0.70357   0.71052   0.71403   0.71689   0.72503
 Alpha virt. eigenvalues --    0.73621   0.74556   0.76367   0.77234   0.79036
 Alpha virt. eigenvalues --    0.80668   0.84014   0.87770   0.88095   0.89671
 Alpha virt. eigenvalues --    0.91003   0.93470   0.94343   0.95316   0.98922
 Alpha virt. eigenvalues --    0.99743   1.00256   1.01591   1.04053   1.05460
 Alpha virt. eigenvalues --    1.05779   1.05883   1.06914   1.07553   1.07767
 Alpha virt. eigenvalues --    1.08544   1.08858   1.10480   1.11915   1.13312
 Alpha virt. eigenvalues --    1.13914   1.14126   1.15070   1.15389   1.18193
 Alpha virt. eigenvalues --    1.19968   1.28516   1.29972   1.33064   1.34820
 Alpha virt. eigenvalues --    1.36691   1.38274   1.51848   1.53818   1.54335
 Alpha virt. eigenvalues --    1.54950   1.55555   1.56018   1.56607   1.58881
 Alpha virt. eigenvalues --    1.61545   1.62446   1.64838   1.65573   1.66426
 Alpha virt. eigenvalues --    1.67172   1.68153   1.68522   1.68929   1.70337
 Alpha virt. eigenvalues --    1.70751   1.71731   1.72868   1.73875   1.74725
 Alpha virt. eigenvalues --    1.75536   1.76194   1.76530   1.76821   1.78104
 Alpha virt. eigenvalues --    1.79054   1.79799   1.84892   1.86842   1.87524
 Alpha virt. eigenvalues --    1.88455   1.90059   1.90635   1.91173   1.91564
 Alpha virt. eigenvalues --    1.92062   1.93076   1.93254   1.93672   1.95178
 Alpha virt. eigenvalues --    1.96022   1.97594   1.99790   2.02880   2.03602
 Alpha virt. eigenvalues --    2.05928   2.06323   2.07532   2.07743   2.08122
 Alpha virt. eigenvalues --    2.08607   2.09832   2.13417   2.26084   2.27070
 Alpha virt. eigenvalues --    2.32236   2.34036   2.42510   2.46525   2.47447
 Alpha virt. eigenvalues --    2.49085   2.49588   2.50788   2.52140   2.54054
 Alpha virt. eigenvalues --    2.56036   2.57137   2.68451   2.70569   2.71125
 Alpha virt. eigenvalues --    2.73234   2.73914   2.75566   2.85004   2.86269
 Alpha virt. eigenvalues --    2.97091   3.00879   3.01622   3.02487   3.69484
 Alpha virt. eigenvalues --    3.70372
          Condensed to atoms (all electrons):
               1          2          3          4          5          6
     1  C    4.632389   0.000692   0.528572   0.521068   0.393730  -0.000667
     2  C    0.000692   4.690200  -0.001131   0.001903   0.000070   0.523166
     3  C    0.528572  -0.001131   4.732884  -0.002226  -0.047580   0.000118
     4  C    0.521068   0.001903  -0.002226   4.761050  -0.052678  -0.004659
     5  H    0.393730   0.000070  -0.047580  -0.052678   0.747339   0.000160
     6  C   -0.000667   0.523166   0.000118  -0.004659   0.000160   4.736286
     7  C   -0.000013   0.498645  -0.000087   0.000059   0.000000   0.001847
     8  H   -0.001754   0.395077   0.000595  -0.005292   0.000185  -0.052752
     9  C   -0.008214  -0.001825   0.515328  -0.066128   0.010265   0.000121
    10  H   -0.043253   0.000016   0.388946   0.009519  -0.017458   0.000002
    11  C   -0.010683   0.000713  -0.065812   0.501812   0.009892  -0.000741
    12  H   -0.043871  -0.000103   0.009399   0.391793  -0.014966  -0.001130
    13  C   -0.000009  -0.006488  -0.000004  -0.000017   0.000003   0.499460
    14  H    0.000266  -0.048013  -0.000015   0.009158  -0.000145   0.384561
    15  C   -0.000001  -0.002368   0.000001  -0.000005  -0.000000  -0.069415
    16  H    0.000004  -0.045518   0.000017   0.000001  -0.000000   0.010349
    17  C   -0.064631  -0.000984  -0.003333  -0.009745  -0.000198   0.000175
    18  H    0.010067   0.000004  -0.045760   0.000154  -0.000313  -0.000003
    19  H    0.008733   0.000012  -0.000183  -0.045796  -0.000319   0.000118
    20  C   -0.000000  -0.067692  -0.000000   0.000002  -0.000000   0.001266
    21  H   -0.000001   0.010148   0.000000  -0.000009   0.000000  -0.044474
    22  H    0.000000   0.008903   0.000000  -0.000000   0.000000  -0.000410
    23  H   -0.000062   0.000042   0.008804   0.009726   0.000071   0.000012
    24  H    0.000000   0.000199  -0.000000   0.000000  -0.000000   0.009110
               7          8          9         10         11         12
     1  C   -0.000013  -0.001754  -0.008214  -0.043253  -0.010683  -0.043871
     2  C    0.498645   0.395077  -0.001825   0.000016   0.000713  -0.000103
     3  C   -0.000087   0.000595   0.515328   0.388946  -0.065812   0.009399
     4  C    0.000059  -0.005292  -0.066128   0.009519   0.501812   0.391793
     5  H    0.000000   0.000185   0.010265  -0.017458   0.009892  -0.014966
     6  C    0.001847  -0.052752   0.000121   0.000002  -0.000741  -0.001130
     7  C    4.749688  -0.048304  -0.000059   0.000004   0.000019  -0.000006
     8  H   -0.048304   0.756075   0.003279   0.000004  -0.001852   0.000078
     9  C   -0.000059   0.003279   4.687116  -0.049017  -0.009636  -0.000085
    10  H    0.000004   0.000004  -0.049017   0.723653  -0.000150  -0.000239
    11  C    0.000019  -0.001852  -0.009636  -0.000150   4.729100  -0.045791
    12  H   -0.000006   0.000078  -0.000085  -0.000239  -0.045791   0.711357
    13  C   -0.071975   0.010716  -0.000000   0.000000   0.000009   0.000019
    14  H    0.010304  -0.018500  -0.000183   0.000002   0.000773   0.002539
    15  C    0.508992   0.011151   0.000000  -0.000000  -0.000003  -0.000000
    16  H    0.390773  -0.016711   0.000035   0.000001   0.000005  -0.000000
    17  C   -0.000053   0.000629   0.497636   0.008322   0.534906   0.008534
    18  H    0.000006  -0.000014   0.396580  -0.014342   0.009206   0.000058
    19  H   -0.000000   0.000208   0.008452   0.000060   0.388226  -0.012536
    20  C    0.004679  -0.000750  -0.000000  -0.000000  -0.000000   0.000000
    21  H   -0.000443  -0.000264   0.000000  -0.000000  -0.000000  -0.000002
    22  H   -0.054011  -0.000212   0.000000  -0.000000  -0.000000  -0.000000
    23  H    0.000002  -0.000071  -0.051126  -0.000283  -0.040093  -0.000291
    24  H    0.009408   0.000058  -0.000000   0.000000   0.000000   0.000000
              13         14         15         16         17         18
     1  C   -0.000009   0.000266  -0.000001   0.000004  -0.064631   0.010067
     2  C   -0.006488  -0.048013  -0.002368  -0.045518  -0.000984   0.000004
     3  C   -0.000004  -0.000015   0.000001   0.000017  -0.003333  -0.045760
     4  C   -0.000017   0.009158  -0.000005   0.000001  -0.009745   0.000154
     5  H    0.000003  -0.000145  -0.000000  -0.000000  -0.000198  -0.000313
     6  C    0.499460   0.384561  -0.069415   0.010349   0.000175  -0.000003
     7  C   -0.071975   0.010304   0.508992   0.390773  -0.000053   0.000006
     8  H    0.010716  -0.018500   0.011151  -0.016711   0.000629  -0.000014
     9  C   -0.000000  -0.000183   0.000000   0.000035   0.497636   0.396580
    10  H    0.000000   0.000002  -0.000000   0.000001   0.008322  -0.014342
    11  C    0.000009   0.000773  -0.000003   0.000005   0.534906   0.009206
    12  H    0.000019   0.002539  -0.000000  -0.000000   0.008534   0.000058
    13  C    4.718083  -0.054288  -0.003103   0.000005   0.000000  -0.000000
    14  H   -0.054288   0.757447  -0.000303  -0.000362   0.000006   0.000000
    15  C   -0.003103  -0.000303   4.685243  -0.053444  -0.000001   0.000000
    16  H    0.000005  -0.000362  -0.053444   0.747010   0.000025   0.000004
    17  C    0.000000   0.000006  -0.000001   0.000025   4.698078  -0.048214
    18  H   -0.000000   0.000000   0.000000   0.000004  -0.048214   0.751237
    19  H    0.000002  -0.000114   0.000000  -0.000000  -0.043882  -0.000261
    20  C    0.513087   0.009930   0.499484   0.009314  -0.000000   0.000000
    21  H    0.394634  -0.016711   0.009492   0.000064   0.000000  -0.000000
    22  H    0.010115   0.000068   0.397481  -0.015434   0.000000  -0.000000
    23  H    0.000000   0.000001  -0.000000   0.000000   0.393852  -0.013768
    24  H   -0.044869  -0.000278  -0.049897  -0.000304  -0.000000  -0.000000
              19         20         21         22         23         24
     1  C    0.008733  -0.000000  -0.000001   0.000000  -0.000062   0.000000
     2  C    0.000012  -0.067692   0.010148   0.008903   0.000042   0.000199
     3  C   -0.000183  -0.000000   0.000000   0.000000   0.008804  -0.000000
     4  C   -0.045796   0.000002  -0.000009  -0.000000   0.009726   0.000000
     5  H   -0.000319  -0.000000   0.000000   0.000000   0.000071  -0.000000
     6  C    0.000118   0.001266  -0.044474  -0.000410   0.000012   0.009110
     7  C   -0.000000   0.004679  -0.000443  -0.054011   0.000002   0.009408
     8  H    0.000208  -0.000750  -0.000264  -0.000212  -0.000071   0.000058
     9  C    0.008452  -0.000000   0.000000   0.000000  -0.051126  -0.000000
    10  H    0.000060  -0.000000  -0.000000  -0.000000  -0.000283   0.000000
    11  C    0.388226  -0.000000  -0.000000  -0.000000  -0.040093   0.000000
    12  H   -0.012536   0.000000  -0.000002  -0.000000  -0.000291   0.000000
    13  C    0.000002   0.513087   0.394634   0.010115   0.000000  -0.044869
    14  H   -0.000114   0.009930  -0.016711   0.000068   0.000001  -0.000278
    15  C    0.000000   0.499484   0.009492   0.397481  -0.000000  -0.049897
    16  H   -0.000000   0.009314   0.000064  -0.015434   0.000000  -0.000304
    17  C   -0.043882  -0.000000   0.000000   0.000000   0.393852  -0.000000
    18  H   -0.000261   0.000000  -0.000000  -0.000000  -0.013768  -0.000000
    19  H    0.717756  -0.000000   0.000000   0.000000  -0.015895  -0.000000
    20  C   -0.000000   4.732739  -0.054859  -0.047424  -0.000000   0.390100
    21  H    0.000000  -0.054859   0.749081  -0.000270  -0.000000  -0.015133
    22  H    0.000000  -0.047424  -0.000270   0.750592  -0.000000  -0.015172
    23  H   -0.015895  -0.000000  -0.000000  -0.000000   0.739723  -0.000000
    24  H   -0.000000   0.390100  -0.015133  -0.015172  -0.000000   0.738930
 Mulliken charges:
               1
     1  C    0.077640
     2  C    0.044333
     3  C   -0.018533
     4  C   -0.019690
     5  H   -0.028058
     6  C    0.007499
     7  C    0.000527
     8  H   -0.031580
     9  C    0.067461
    10  H   -0.005788
    11  C    0.000098
    12  H   -0.004757
    13  C    0.034620
    14  H   -0.036142
    15  C    0.066695
    16  H   -0.025832
    17  C    0.028876
    18  H   -0.044641
    19  H   -0.004577
    20  C    0.010125
    21  H   -0.031254
    22  H   -0.034226
    23  H   -0.030644
    24  H   -0.022152
 Sum of Mulliken charges =  -0.00000
 Mulliken charges with hydrogens summed into heavy atoms:
               1
     1  C    0.049582
     2  C    0.012753
     3  C   -0.024321
     4  C   -0.024446
     6  C   -0.028643
     7  C   -0.025305
     9  C    0.022820
    11  C   -0.004479
    13  C    0.003366
    15  C    0.032469
    17  C   -0.001769
    20  C   -0.012026
 Electronic spatial extent (au):  <R**2>=           2770.9434
 Charge=             -0.0000 electrons
 Dipole moment (field-independent basis, Debye):
    X=             -0.4040    Y=              0.4729    Z=              0.0338  Tot=              0.6228
 Quadrupole moment (field-independent basis, Debye-Ang):
   XX=            -70.6739   YY=            -70.9005   ZZ=            -65.0647
   XY=              0.1408   XZ=             -0.1371   YZ=              2.3530
 Traceless Quadrupole moment (field-independent basis, Debye-Ang):
   XX=             -1.7942   YY=             -2.0208   ZZ=              3.8150
   XY=              0.1408   XZ=             -0.1371   YZ=              2.3530
 Octapole moment (field-independent basis, Debye-Ang**2):
  XXX=             -3.6970  YYY=              5.2552  ZZZ=             -1.4087  XYY=             21.7266
  XXY=            -20.5225  XXZ=              7.7482  XZZ=             -2.3183  YZZ=              2.2579
  YYZ=              0.6377  XYZ=             -4.7540
 Hexadecapole moment (field-independent basis, Debye-Ang**3):
 XXXX=          -1569.7869 YYYY=          -1763.9447 ZZZZ=           -531.7401 XXXY=            653.2257
 XXXZ=             -1.0546 YYYX=            652.5326 YYYZ=            -15.3331 ZZZX=             -2.5553
 ZZZY=            -30.1429 XXYY=           -542.8176 XXZZ=           -336.0075 YYZZ=           -365.4861
 XXYZ=            -11.5073 YYXZ=            -14.7757 ZZXY=            200.1563
 N-N= 5.898309285988D+02 E-N=-2.255106344864D+03  KE= 4.610402857621D+02
 No NMR shielding tensors so no spin-rotation constants.
 Leave Link  601 at Mon Nov 17 09:21:26 2025, MaxMem=  5368709120 cpu:               6.0 elap:               0.4
 (Enter /work/lopez//g16/l602.exe)
 FitSet:  NAtFit=    24 NAtPot=    24 NAtFrz=     0 MDM=    28 TotChg=   0.00000
 Merz-Kollman atomic radii used.

 **********************************************************************

            Electrostatic Properties Using The SCF Density.

 **********************************************************************

       Atomic Center    1 is at  -0.800021  2.407117 -0.865697
       Atomic Center    2 is at   0.782917 -0.806721  0.421371
       Atomic Center    3 is at  -0.800680  2.795731  0.424325
       Atomic Center    4 is at  -1.643106  1.404536 -1.333143
       Atomic Center    5 is at  -0.098084  2.834399 -1.547672
       Atomic Center    6 is at   0.756070 -1.292407 -0.896231
       Atomic Center    7 is at   1.762158 -1.400957  1.315589
       Atomic Center    8 is at   0.175522 -0.023531  0.765044
       Atomic Center    9 is at  -1.712745  2.278996  1.353432
       Atomic Center   10 is at  -0.146969  3.659018  0.767433
       Atomic Center   11 is at  -2.567222  0.829171 -0.415324
       Atomic Center   12 is at  -1.625042  1.064076 -2.387622
       Atomic Center   13 is at   1.694389 -2.244711 -1.323548
       Atomic Center   14 is at   0.058188 -0.778980 -1.558856
       Atomic Center   15 is at   2.568954 -2.423501  0.926651
       Atomic Center   16 is at   1.743826 -1.044606  2.350276
       Atomic Center   17 is at  -2.568963  1.204053  0.911929
       Atomic Center   18 is at  -1.750439  2.579793  2.331049
       Atomic Center   19 is at  -3.270813  0.027422 -0.789258
       Atomic Center   20 is at   2.580656 -2.809985 -0.417516
       Atomic Center   21 is at   1.603243 -2.537627 -2.359778
       Atomic Center   22 is at   3.300186 -2.858110  1.562439
       Atomic Center   23 is at  -3.267592  0.745774  1.559428
       Atomic Center   24 is at   3.225570 -3.608950 -0.794319
    1120 points will be used for fitting atomic charges
 Fitting point charges to electrostatic potential
 Charges from ESP fit, RMS=   0.00125 RRMS=   0.13205:
 ESP charges:
               1
     1  C   -0.085990
     2  C   -0.113442
     3  C   -0.113551
     4  C   -0.142428
     5  H    0.108309
     6  C   -0.096788
     7  C   -0.102093
     8  H    0.117478
     9  C   -0.093637
    10  H    0.102246
    11  C   -0.086359
    12  H    0.126560
    13  C   -0.129153
    14  H    0.096146
    15  C   -0.122805
    16  H    0.096403
    17  C   -0.141507
    18  H    0.120960
    19  H    0.102976
    20  C   -0.088254
    21  H    0.109012
    22  H    0.113786
    23  H    0.123582
    24  H    0.098549
 Sum of ESP charges =   0.00000
 ESP charges with hydrogens summed into heavy atoms:
               1
     1  C    0.022319
     2  C    0.004035
     3  C   -0.011305
     4  C   -0.015868
     6  C   -0.000641
     7  C   -0.005690
     9  C    0.027324
    11  C    0.016617
    13  C   -0.020141
    15  C   -0.009020
    17  C   -0.017925
    20  C    0.010295
 Charge=   0.00000 Dipole=    -0.4122     0.4911     0.0276 Tot=     0.6417
 -----------------------------------------------------------------

              Electrostatic Properties (Atomic Units)

 -----------------------------------------------------------------
    Center     Electric         -------- Electric Field --------
               Potential          X             Y             Z
 -----------------------------------------------------------------
    1 Atom    -14.757251
    2 Atom    -14.761644
    3 Atom    -14.748601
    4 Atom    -14.743186
    5 Atom     -1.092647
    6 Atom    -14.760755
    7 Atom    -14.758684
    8 Atom     -1.101689
    9 Atom    -14.748849
   10 Atom     -1.085460
   11 Atom    -14.743180
   12 Atom     -1.080984
   13 Atom    -14.760545
   14 Atom     -1.101022
   15 Atom    -14.764814
   16 Atom     -1.101258
   17 Atom    -14.748779
   18 Atom     -1.086468
   19 Atom     -1.084349
   20 Atom    -14.758489
   21 Atom     -1.097993
   22 Atom     -1.097722
   23 Atom     -1.089202
   24 Atom     -1.097109
 -----------------------------------------------------------------
 Leave Link  602 at Mon Nov 17 09:21:26 2025, MaxMem=  5368709120 cpu:               1.2 elap:               0.1
 (Enter /work/lopez//g16/l9999.exe)
 1\1\GINC-D3003\SP\RCAM-B3LYP\CC-pVDZ\C12H12\M.INGHAM\17-Nov-2025\0\\#p
  cam-b3lyp cc-pvdz nosymm pop=ESP\\benzne smaples\\0,1\C,0,-0.800021,2
 .407117,-0.865697\C,0,0.782917,-0.806721,0.421371\C,0,-0.80068,2.79573
 1,0.424325\C,0,-1.643106,1.404536,-1.333143\H,0,-0.098084,2.834399,-1.
 547672\C,0,0.75607,-1.292407,-0.896231\C,0,1.762158,-1.400957,1.315589
 \H,0,0.175522,-0.023531,0.765044\C,0,-1.712745,2.278996,1.353432\H,0,-
 0.146969,3.659018,0.767433\C,0,-2.567222,0.829171,-0.415324\H,0,-1.625
 042,1.064076,-2.387622\C,0,1.694389,-2.244711,-1.323548\H,0,0.058188,-
 0.77898,-1.558856\C,0,2.568954,-2.423501,0.926651\H,0,1.743826,-1.0446
 06,2.350276\C,0,-2.568963,1.204053,0.911929\H,0,-1.750439,2.579793,2.3
 31049\H,0,-3.270813,0.027422,-0.789258\C,0,2.580656,-2.809985,-0.41751
 6\H,0,1.603243,-2.537627,-2.359778\H,0,3.300186,-2.85811,1.562439\H,0,
 -3.267592,0.745774,1.559428\H,0,3.22557,-3.60895,-0.794319\\Version=ES
 64L-G16RevB.01\HF=-464.213451\RMSD=9.115e-09\Dipole=-0.1589317,0.18604
 1,0.0133048\Quadrupole=-1.3339585,-1.5024201,2.8363786,0.1047041,-0.10
 19034,1.7493837\PG=C01 [X(C12H12)]\\@


 LAWS OF PROGRAMMING DEFINITION:  A WORKING PROGRAM
                                  IS ONE THAT HAS
                                  ONLY UNOBSERVED
                                  BUGS.
 Job cpu time:       0 days  0 hours  6 minutes 15.3 seconds.
 Elapsed time:       0 days  0 hours  0 minutes 20.0 seconds.
 File lengths (MBytes):  RWF=     47 Int=      0 D2E=      0 Chk=      5 Scr=      2
 Normal termination of Gaussian 16 at Mon Nov 17 09:21:27 2025.
